@RELATION banking_fraud

@ATTRIBUTE age NUMERIC
@ATTRIBUTE gender {Female,Male}
@ATTRIBUTE occupation {Business,Retired,Salaried,Self_Employed,Student}
@ATTRIBUTE account_type {Current,Savings}
@ATTRIBUTE account_balance NUMERIC
@ATTRIBUTE transaction_type {Cash_Withdrawal,Deposit,Payment,Transfer}
@ATTRIBUTE payment_method {Card,Cash,Net_Banking,UPI,Wallet}
@ATTRIBUTE channel {ATM,Branch,Mobile,Web}
@ATTRIBUTE amount NUMERIC
@ATTRIBUTE transaction_hour NUMERIC
@ATTRIBUTE age_band {Adult,Elderly,Middle_Aged,Senior,Young}
@ATTRIBUTE fraud {0,1}

@DATA
56,Male,Self_Employed,Savings,69783.16,Cash_Withdrawal,Card,Branch,1101.27,0,Senior,0
69,Male,Self_Employed,Current,31308.29,Deposit,UPI,ATM,50.92,6,Elderly,0
46,Female,Business,Savings,8422.71,Payment,UPI,Branch,1043.53,20,Middle_Aged,0
32,Male,Salaried,Savings,24955.89,Payment,UPI,Mobile,1902.75,15,Adult,0
60,Male,Salaried,Savings,30259.73,Transfer,Net_Banking,Mobile,135.71,16,Senior,0
25,Male,Salaried,Current,74782.34,Payment,UPI,ATM,1146.19,23,Young,0
38,Female,Salaried,Savings,27325.25,Payment,Net_Banking,Branch,1026.07,4,Middle_Aged,0
56,Female,Self_Employed,Current,10230.37,Cash_Withdrawal,Cash,ATM,688.63,21,Senior,0
36,Male,Student,Savings,59297.83,Payment,Cash,Web,4054.66,22,Middle_Aged,0
40,Female,Self_Employed,Savings,22425.79,Transfer,UPI,Web,3189.68,9,Middle_Aged,0
28,Female,Salaried,Current,3511.51,Cash_Withdrawal,Card,Mobile,30263.18,6,Adult,1
28,Male,Salaried,Savings,34891.12,Deposit,Card,Branch,326.06,12,Adult,0
41,Male,Self_Employed,Savings,40159.61,Payment,UPI,ATM,1683.52,6,Middle_Aged,0
70,Female,Self_Employed,Current,13706.83,Payment,Net_Banking,Web,4914.15,14,Elderly,0
53,Male,Salaried,Current,23071.73,Deposit,Cash,Mobile,548.84,16,Senior,0
57,Female,Salaried,Savings,45532.14,Deposit,UPI,Mobile,5950.65,22,Senior,0
41,Female,Salaried,Savings,35081.45,Transfer,Net_Banking,ATM,1579.56,2,Middle_Aged,0
20,Female,Student,Current,7706.92,Payment,UPI,Web,191.2,4,Young,0
39,Female,Salaried,Savings,73338.44,Payment,Card,Branch,303.12,9,Middle_Aged,0
70,Female,Salaried,Current,105352.22,Transfer,Card,ATM,613.79,4,Elderly,0
19,Female,Salaried,Savings,17887.42,Transfer,UPI,ATM,1004.02,23,Young,0
41,Male,Business,Savings,5837.76,Deposit,Cash,Branch,3783.64,6,Middle_Aged,0
61,Male,Salaried,Current,49855.81,Transfer,Cash,ATM,1002.58,6,Senior,0
47,Female,Salaried,Savings,15701.73,Deposit,Cash,Mobile,3638.38,21,Middle_Aged,0
55,Female,Salaried,Savings,41289.32,Payment,UPI,Mobile,1221.64,22,Senior,0
19,Female,Business,Savings,156644.84,Cash_Withdrawal,UPI,Mobile,1110.29,13,Young,0
38,Male,Self_Employed,Savings,7808.39,Transfer,UPI,Web,818.98,22,Middle_Aged,0
50,Female,Salaried,Savings,14224.25,Deposit,Wallet,Branch,2927.85,14,Middle_Aged,0
29,Male,Self_Employed,Current,23026.85,Transfer,UPI,Mobile,1248.22,4,Adult,1
39,Female,Salaried,Savings,75609.91,Deposit,Card,Web,527.13,4,Middle_Aged,0
61,Female,Salaried,Savings,462542.49,Deposit,Net_Banking,Web,1528.56,3,Senior,0
42,Male,Salaried,Current,32783.09,Deposit,Net_Banking,Mobile,694.14,19,Middle_Aged,0
66,Male,Salaried,Savings,7289.73,Payment,Net_Banking,ATM,656.82,20,Elderly,0
44,Female,Business,Savings,20405.97,Deposit,Wallet,Web,3578.32,8,Middle_Aged,0
59,Female,Self_Employed,Savings,14474.0,Payment,Card,Mobile,935.08,11,Senior,0
45,Female,Salaried,Current,47919.05,Transfer,UPI,Mobile,9270.53,15,Middle_Aged,1
33,Male,Business,Savings,36370.3,Transfer,UPI,Branch,2287.61,21,Adult,0
32,Male,Business,Savings,11690.7,Transfer,UPI,Web,509.9,7,Adult,0
64,Male,Student,Savings,13810.88,Payment,Card,Branch,476.07,8,Senior,0
68,Male,Salaried,Savings,20170.05,Deposit,UPI,Mobile,317.11,11,Elderly,0
61,Male,Salaried,Savings,22214.79,Cash_Withdrawal,Cash,Web,2010.11,19,Senior,0
72,Male,Salaried,Savings,26010.33,Payment,UPI,Web,465.63,6,Elderly,0
69,Female,Salaried,Savings,27975.9,Cash_Withdrawal,UPI,Branch,113.79,20,Elderly,0
74,Female,Salaried,Current,72249.48,Payment,Cash,Branch,210.31,3,Elderly,0
20,Male,Salaried,Savings,19595.03,Cash_Withdrawal,UPI,Branch,363.53,22,Young,0
54,Female,Business,Savings,17416.03,Transfer,Cash,Branch,1535.87,2,Senior,0
68,Female,Business,Savings,9218.62,Cash_Withdrawal,Wallet,ATM,1009.67,0,Elderly,0
24,Male,Retired,Savings,22491.95,Payment,Net_Banking,Web,2815.35,6,Young,0
38,Female,Salaried,Savings,33022.92,Transfer,UPI,Mobile,442.66,8,Middle_Aged,0
26,Male,Self_Employed,Savings,6773.16,Deposit,Net_Banking,Web,792.86,1,Adult,0
56,Male,Self_Employed,Savings,20456.52,Cash_Withdrawal,UPI,Branch,6293.88,6,Senior,0
35,Female,Business,Savings,68066.15,Deposit,Cash,ATM,779.63,9,Adult,0
21,Male,Salaried,Savings,45190.62,Payment,UPI,Mobile,1372.59,1,Young,1
42,Male,Self_Employed,Savings,36270.01,Transfer,UPI,Web,568.9,12,Middle_Aged,0
31,Male,Salaried,Savings,44221.65,Deposit,Wallet,Mobile,875.2,2,Adult,0
67,Male,Salaried,Savings,17001.16,Transfer,Card,Mobile,1763.87,12,Elderly,0
26,Male,Salaried,Savings,15282.51,Transfer,Net_Banking,ATM,2115.6,9,Adult,0
43,Male,Business,Savings,74423.5,Cash_Withdrawal,Card,ATM,1234.14,11,Middle_Aged,0
70,Male,Student,Savings,52203.85,Cash_Withdrawal,Net_Banking,Web,845.7,2,Elderly,0
19,Male,Retired,Current,14808.87,Payment,Wallet,Mobile,1249.13,19,Young,0
37,Female,Business,Savings,5985.06,Payment,Card,ATM,525.25,5,Middle_Aged,0
45,Female,Salaried,Savings,15056.84,Deposit,Card,Branch,884.04,2,Middle_Aged,0
64,Female,Retired,Savings,41557.25,Payment,Cash,Web,1528.95,1,Senior,0
24,Male,Salaried,Savings,15889.15,Cash_Withdrawal,Net_Banking,Mobile,2942.43,22,Young,0
61,Male,Retired,Savings,35033.3,Transfer,UPI,Mobile,440.75,21,Senior,0
25,Female,Salaried,Current,83768.85,Transfer,Cash,Web,918.55,13,Young,0
64,Female,Student,Savings,24973.69,Deposit,UPI,Mobile,401.38,14,Senior,0
52,Female,Self_Employed,Current,32440.67,Transfer,UPI,Web,703.14,17,Senior,0
31,Male,Business,Current,46533.28,Payment,UPI,Web,2982.46,18,Adult,0
34,Female,Self_Employed,Savings,11320.07,Payment,Cash,ATM,641.28,21,Adult,0
53,Female,Retired,Savings,14495.02,Cash_Withdrawal,Net_Banking,Branch,996.26,9,Senior,0
67,Male,Self_Employed,Savings,48094.78,Deposit,Card,Mobile,318.37,19,Elderly,0
57,Female,Business,Savings,27710.7,Payment,Card,Mobile,625.71,16,Senior,0
21,Male,Self_Employed,Current,29655.62,Deposit,Cash,Branch,233.14,16,Young,0
19,Male,Business,Savings,27629.21,Payment,Card,Mobile,1449.15,18,Young,0
23,Male,Salaried,Current,58843.41,Deposit,Net_Banking,Web,1584.61,23,Young,0
71,Female,Self_Employed,Savings,38122.89,Deposit,Card,Web,1535.93,3,Elderly,0
59,Female,Salaried,Current,38524.75,Cash_Withdrawal,UPI,ATM,1637.79,10,Senior,0
21,Male,Business,Current,71521.87,Payment,UPI,Branch,1538.73,16,Young,0
71,Female,Self_Employed,Savings,97271.28,Payment,Net_Banking,Mobile,238.34,23,Elderly,0
46,Female,Business,Savings,161922.54,Deposit,Wallet,Mobile,498.8,9,Middle_Aged,0
35,Female,Business,Savings,16929.1,Payment,UPI,Branch,116.31,21,Adult,0
43,Female,Self_Employed,Current,193983.02,Deposit,UPI,Mobile,689.82,16,Middle_Aged,0
61,Male,Salaried,Current,11187.83,Cash_Withdrawal,Card,Web,459.1,11,Senior,0
51,Female,Self_Employed,Current,126525.34,Payment,Cash,Web,1055.02,9,Senior,0
27,Male,Salaried,Savings,16201.06,Transfer,Cash,Mobile,12828.99,9,Adult,0
53,Male,Salaried,Savings,25459.6,Deposit,Wallet,ATM,2397.73,5,Senior,0
31,Female,Salaried,Current,27305.97,Deposit,Net_Banking,ATM,5062.32,16,Adult,0
48,Male,Salaried,Savings,13445.82,Payment,Net_Banking,Branch,2493.43,18,Middle_Aged,0
65,Female,Salaried,Current,28835.86,Payment,Card,Mobile,992.2,1,Senior,0
32,Female,Self_Employed,Savings,14012.84,Payment,UPI,Mobile,1086.05,3,Adult,1
25,Male,Salaried,Savings,10017.06,Cash_Withdrawal,Cash,Mobile,2603.43,17,Young,0
31,Male,Salaried,Savings,26082.53,Payment,Card,Mobile,1405.78,20,Adult,0
40,Male,Student,Savings,95980.61,Cash_Withdrawal,UPI,Web,822.25,3,Middle_Aged,0
74,Male,Salaried,Savings,21955.75,Payment,UPI,Branch,4566.33,5,Elderly,0
57,Female,Business,Savings,57114.7,Cash_Withdrawal,Card,Mobile,1710.82,13,Senior,0
38,Female,Student,Savings,13676.95,Deposit,Card,Mobile,263.7,6,Middle_Aged,0
33,Female,Salaried,Savings,9635.59,Transfer,Card,Web,915.65,11,Adult,0
62,Male,Salaried,Savings,38680.39,Payment,UPI,Mobile,1153.13,1,Senior,1
35,Male,Student,Savings,109588.74,Payment,Card,Branch,731.89,17,Adult,0
64,Male,Salaried,Current,31798.16,Deposit,UPI,Mobile,746.08,23,Senior,0
70,Female,Salaried,Savings,52120.73,Transfer,Cash,Mobile,722.5,12,Elderly,0
41,Male,Business,Current,88974.01,Payment,Card,Branch,184.07,12,Middle_Aged,0
43,Female,Self_Employed,Savings,26128.34,Cash_Withdrawal,Net_Banking,Mobile,154.08,4,Middle_Aged,0
42,Male,Salaried,Savings,23821.63,Payment,Net_Banking,Mobile,570.55,6,Middle_Aged,0
62,Female,Retired,Savings,39248.59,Payment,Cash,ATM,734.73,11,Senior,0
58,Female,Salaried,Savings,45252.59,Cash_Withdrawal,Cash,Branch,287.35,13,Senior,0
46,Male,Salaried,Savings,8785.17,Cash_Withdrawal,Card,Web,393.77,0,Middle_Aged,0
32,Male,Retired,Savings,34083.9,Deposit,UPI,Mobile,851.39,23,Adult,0
62,Female,Salaried,Savings,26888.52,Cash_Withdrawal,Cash,Web,3074.99,9,Senior,0
18,Female,Retired,Savings,14305.29,Transfer,Card,Mobile,2879.29,8,Young,0
42,Male,Student,Savings,25441.87,Payment,Card,Mobile,2977.44,9,Middle_Aged,0
24,Male,Salaried,Savings,10590.79,Transfer,Card,Web,399.29,6,Young,0
26,Female,Student,Savings,8032.55,Cash_Withdrawal,Net_Banking,Web,878.06,15,Adult,0
41,Male,Business,Savings,28381.1,Transfer,UPI,Mobile,3773.07,11,Middle_Aged,1
18,Female,Business,Savings,55362.71,Payment,UPI,ATM,187.79,11,Young,0
61,Female,Business,Savings,20377.11,Payment,Wallet,ATM,692.67,18,Senior,0
25,Male,Salaried,Savings,12474.19,Cash_Withdrawal,Net_Banking,Web,1369.45,12,Young,0
41,Male,Salaried,Current,14125.84,Payment,UPI,Web,199.31,20,Middle_Aged,0
28,Male,Student,Current,41737.51,Payment,Net_Banking,Web,1683.89,17,Adult,0
68,Male,Salaried,Savings,102120.44,Transfer,UPI,Web,5151.24,2,Elderly,1
34,Male,Self_Employed,Savings,49829.62,Deposit,Cash,Web,3731.57,6,Adult,0
25,Female,Salaried,Savings,76163.19,Cash_Withdrawal,Card,Branch,918.04,0,Young,0
52,Female,Self_Employed,Savings,11636.49,Payment,Card,ATM,2475.99,2,Senior,0
52,Male,Self_Employed,Savings,25358.17,Transfer,Cash,Mobile,197.09,20,Senior,0
50,Male,Salaried,Savings,60776.15,Payment,UPI,Mobile,1448.6,13,Middle_Aged,0
22,Male,Business,Savings,8783.74,Payment,UPI,Mobile,808.62,3,Young,1
59,Female,Student,Savings,15887.71,Deposit,Cash,Web,944.41,18,Senior,0
56,Male,Student,Savings,57160.33,Transfer,UPI,Branch,1216.62,21,Senior,0
58,Male,Student,Savings,33081.87,Cash_Withdrawal,Wallet,Mobile,1615.87,5,Senior,0
45,Female,Business,Savings,12430.54,Deposit,Card,Branch,256.7,19,Middle_Aged,0
24,Female,Salaried,Savings,7297.91,Payment,UPI,Mobile,411.39,8,Young,0
26,Male,Salaried,Savings,78421.4,Transfer,Cash,Mobile,848.73,10,Adult,0
25,Male,Salaried,Savings,5204.57,Deposit,UPI,Web,185.18,21,Young,0
29,Male,Salaried,Savings,44619.05,Payment,UPI,Mobile,1257.96,14,Adult,0
51,Female,Business,Savings,17563.26,Deposit,Card,Mobile,2521.77,8,Senior,0
50,Male,Self_Employed,Savings,62171.67,Transfer,Wallet,Mobile,4412.26,10,Middle_Aged,0
65,Male,Student,Current,11687.57,Transfer,Card,Branch,1207.64,9,Senior,0
72,Male,Salaried,Savings,217910.38,Deposit,UPI,Web,7232.83,1,Elderly,0
40,Female,Business,Current,37117.32,Payment,Card,Mobile,1058.87,21,Middle_Aged,0
41,Female,Salaried,Savings,42347.11,Payment,UPI,ATM,312.07,13,Middle_Aged,0
54,Male,Business,Savings,14495.05,Transfer,UPI,Branch,1036.96,3,Senior,0
52,Male,Salaried,Savings,24180.35,Transfer,Net_Banking,Mobile,892.77,1,Senior,0
61,Female,Salaried,Savings,24687.21,Cash_Withdrawal,Wallet,Branch,1837.49,4,Senior,0
57,Female,Salaried,Savings,113193.57,Deposit,UPI,Mobile,1437.45,13,Senior,0
39,Female,Salaried,Savings,37066.22,Transfer,Card,Web,1338.46,14,Middle_Aged,0
44,Female,Business,Current,41567.08,Payment,Wallet,Web,2883.93,18,Middle_Aged,0
52,Female,Salaried,Current,41196.93,Payment,UPI,Mobile,713.4,5,Senior,0
18,Female,Self_Employed,Savings,44484.17,Deposit,UPI,Web,1879.43,14,Young,0
52,Female,Self_Employed,Savings,8852.34,Transfer,Net_Banking,Mobile,1452.25,13,Senior,0
54,Female,Salaried,Savings,138609.3,Cash_Withdrawal,Cash,Web,1228.99,7,Senior,0
64,Female,Self_Employed,Savings,13333.16,Cash_Withdrawal,UPI,Web,1026.9,19,Senior,0
31,Male,Salaried,Current,26089.2,Transfer,Card,ATM,307.58,11,Adult,0
20,Male,Salaried,Current,91599.98,Transfer,UPI,Web,850.72,3,Young,1
18,Male,Business,Current,126462.39,Deposit,Card,ATM,907.06,20,Young,0
22,Female,Salaried,Savings,51264.99,Transfer,Net_Banking,ATM,532.34,5,Young,0
43,Male,Business,Savings,17966.14,Payment,Card,Web,282.06,10,Middle_Aged,0
72,Female,Salaried,Savings,29797.73,Deposit,Cash,ATM,628.59,22,Elderly,0
31,Female,Business,Current,30747.8,Payment,UPI,Mobile,683.05,21,Adult,0
56,Male,Self_Employed,Savings,31631.61,Cash_Withdrawal,UPI,Mobile,287.06,6,Senior,0
44,Female,Self_Employed,Savings,10056.33,Transfer,UPI,Mobile,286.76,3,Middle_Aged,1
26,Male,Business,Savings,73724.29,Payment,Net_Banking,ATM,135.38,14,Adult,0
32,Male,Business,Current,29961.58,Transfer,Cash,Mobile,1473.02,0,Adult,0
32,Male,Salaried,Savings,15096.6,Payment,UPI,Web,2916.2,8,Adult,0
43,Female,Business,Savings,18056.94,Cash_Withdrawal,Card,Web,1114.43,22,Middle_Aged,0
59,Male,Salaried,Current,33385.6,Transfer,Net_Banking,Branch,731.93,19,Senior,0
30,Female,Salaried,Current,8757.58,Transfer,Card,ATM,273.14,7,Adult,0
68,Male,Salaried,Savings,54325.45,Transfer,UPI,Web,120.92,11,Elderly,0
49,Male,Retired,Savings,32460.66,Payment,UPI,Web,1061.06,6,Middle_Aged,0
56,Male,Salaried,Current,94141.26,Payment,UPI,Mobile,2029.75,17,Senior,0
66,Female,Salaried,Current,28625.89,Payment,Net_Banking,Web,477.04,0,Elderly,0
69,Female,Salaried,Savings,11291.28,Deposit,Card,Web,3150.79,8,Elderly,0
49,Female,Business,Savings,10319.16,Transfer,Cash,Mobile,550.66,6,Middle_Aged,0
21,Male,Business,Savings,19681.52,Transfer,Net_Banking,Web,3245.41,13,Young,0
47,Male,Salaried,Current,21419.91,Transfer,Wallet,Mobile,502.3,0,Middle_Aged,0
54,Female,Salaried,Savings,17089.01,Payment,UPI,Mobile,76.48,12,Senior,0
40,Female,Self_Employed,Savings,29815.52,Cash_Withdrawal,UPI,Mobile,2051.56,19,Middle_Aged,0
56,Female,Salaried,Savings,16745.5,Deposit,Card,Branch,435.79,14,Senior,0
62,Female,Salaried,Current,32970.38,Transfer,UPI,Mobile,234.52,4,Senior,1
32,Female,Business,Savings,17738.3,Payment,Net_Banking,Mobile,1775.07,4,Adult,0
60,Female,Self_Employed,Savings,44594.37,Payment,Net_Banking,Web,450.62,13,Senior,0
46,Male,Student,Savings,20992.51,Deposit,Cash,Web,266.96,13,Middle_Aged,0
53,Female,Self_Employed,Savings,72908.85,Cash_Withdrawal,UPI,Web,4070.04,13,Senior,0
30,Male,Self_Employed,Savings,45335.05,Transfer,UPI,ATM,893.59,4,Adult,0
49,Male,Salaried,Savings,31409.58,Transfer,Card,Web,261.1,10,Middle_Aged,0
24,Female,Retired,Savings,22785.01,Payment,Net_Banking,Mobile,690.12,18,Young,0
68,Female,Self_Employed,Current,7980.79,Transfer,UPI,Mobile,9251.7,4,Elderly,1
39,Male,Self_Employed,Savings,83352.97,Deposit,UPI,Mobile,1227.04,3,Middle_Aged,1
45,Female,Business,Savings,15605.49,Deposit,UPI,Web,577.18,14,Middle_Aged,0
19,Female,Salaried,Savings,28928.59,Transfer,Wallet,Web,1810.53,20,Young,0
59,Male,Salaried,Savings,35420.41,Payment,Cash,Web,696.22,6,Senior,0
62,Male,Salaried,Savings,23229.79,Cash_Withdrawal,Net_Banking,Mobile,658.91,4,Senior,0
74,Male,Salaried,Current,79513.4,Deposit,Net_Banking,Mobile,568.86,14,Elderly,0
70,Female,Salaried,Savings,10126.42,Payment,Card,ATM,2575.89,13,Elderly,0
23,Male,Self_Employed,Savings,107704.63,Cash_Withdrawal,UPI,Branch,1332.42,23,Young,0
45,Female,Self_Employed,Current,46039.09,Payment,UPI,Mobile,4547.09,23,Middle_Aged,0
45,Male,Business,Savings,22089.63,Deposit,Card,Mobile,1490.53,2,Middle_Aged,0
61,Male,Self_Employed,Current,22288.27,Transfer,Net_Banking,Web,5052.31,4,Senior,1
61,Male,Self_Employed,Savings,4566.68,Cash_Withdrawal,UPI,ATM,2100.83,11,Senior,0
37,Female,Salaried,Savings,13648.89,Deposit,UPI,Branch,845.6,19,Middle_Aged,0
47,Female,Salaried,Savings,20269.59,Transfer,Card,Web,957.79,13,Middle_Aged,0
28,Male,Salaried,Savings,30973.4,Deposit,UPI,Web,6821.76,4,Adult,0
72,Male,Business,Savings,73693.14,Transfer,Cash,ATM,4039.26,23,Elderly,0
45,Male,Salaried,Savings,137315.5,Cash_Withdrawal,UPI,Mobile,5150.03,3,Middle_Aged,1
42,Female,Business,Savings,33450.22,Transfer,UPI,ATM,400.43,20,Middle_Aged,0
56,Male,Student,Current,31713.17,Payment,Card,Mobile,168.15,15,Senior,0
50,Female,Business,Savings,18173.48,Cash_Withdrawal,Card,Web,471.93,6,Middle_Aged,0
18,Male,Self_Employed,Current,6822.08,Cash_Withdrawal,Card,ATM,1293.99,2,Young,0
74,Male,Business,Savings,16570.36,Payment,UPI,Web,575.04,21,Elderly,0
44,Male,Retired,Savings,22824.71,Transfer,Net_Banking,Mobile,1127.11,3,Middle_Aged,0
74,Male,Self_Employed,Current,58707.08,Cash_Withdrawal,UPI,Web,698.4,19,Elderly,0
69,Male,Self_Employed,Savings,40766.32,Transfer,UPI,Mobile,187.79,21,Elderly,0
30,Male,Retired,Current,32120.06,Cash_Withdrawal,Cash,Mobile,1683.95,5,Adult,0
58,Female,Self_Employed,Savings,16904.92,Cash_Withdrawal,UPI,Mobile,1131.01,2,Senior,1
20,Male,Business,Savings,5509.93,Payment,Card,Branch,4143.73,0,Young,0
56,Female,Student,Savings,5782.52,Payment,Wallet,Mobile,1286.73,2,Senior,0
23,Male,Salaried,Savings,7108.25,Payment,Cash,Mobile,2398.62,23,Young,0
25,Male,Business,Savings,21298.56,Deposit,Cash,ATM,483.34,7,Young,0
44,Female,Salaried,Savings,59589.55,Cash_Withdrawal,Card,Mobile,1551.55,15,Middle_Aged,0
26,Male,Salaried,Savings,58317.21,Payment,UPI,Web,2461.63,21,Adult,0
54,Female,Retired,Savings,50765.52,Cash_Withdrawal,Card,Web,1912.88,6,Senior,0
50,Female,Self_Employed,Savings,17817.27,Transfer,UPI,Mobile,874.32,17,Middle_Aged,0
68,Male,Self_Employed,Savings,67198.79,Deposit,Wallet,Mobile,1556.9,8,Elderly,0
59,Female,Salaried,Savings,12773.7,Transfer,UPI,ATM,2044.17,2,Senior,0
61,Female,Student,Current,53247.96,Deposit,Card,Branch,3646.01,17,Senior,0
41,Male,Student,Current,7046.87,Deposit,Net_Banking,Mobile,625.71,15,Middle_Aged,0
32,Female,Salaried,Savings,10491.39,Payment,Net_Banking,Web,358.95,20,Adult,0
71,Male,Student,Current,100920.87,Transfer,Wallet,Web,477.56,0,Elderly,1
49,Male,Student,Savings,22855.16,Cash_Withdrawal,Cash,Branch,1268.26,20,Middle_Aged,0
49,Male,Self_Employed,Current,15603.09,Payment,UPI,Branch,1101.46,19,Middle_Aged,0
41,Male,Business,Savings,65004.19,Cash_Withdrawal,Net_Banking,ATM,2053.53,15,Middle_Aged,0
58,Female,Salaried,Savings,71246.24,Transfer,UPI,Branch,2516.88,11,Senior,0
69,Male,Salaried,Savings,19022.45,Transfer,UPI,Branch,166.47,5,Elderly,0
66,Male,Salaried,Savings,33616.45,Deposit,Cash,Mobile,677.85,20,Elderly,0
66,Female,Student,Savings,30017.2,Transfer,Cash,Web,1355.92,8,Elderly,0
69,Male,Retired,Savings,2802.64,Payment,Net_Banking,Web,3344.86,20,Elderly,0
29,Male,Salaried,Current,8807.09,Payment,Wallet,Web,1039.63,12,Adult,0
56,Female,Salaried,Savings,57171.08,Transfer,Net_Banking,Mobile,4296.05,23,Senior,0
19,Female,Salaried,Savings,13820.62,Cash_Withdrawal,UPI,Web,1903.37,11,Young,0
20,Female,Student,Savings,41104.39,Deposit,Cash,ATM,1604.83,12,Young,0
66,Female,Business,Savings,33204.22,Transfer,Net_Banking,Web,982.18,17,Elderly,0
54,Female,Business,Savings,71135.81,Deposit,Wallet,Branch,1069.97,18,Senior,0
66,Female,Business,Savings,9035.95,Transfer,Card,Web,1526.58,18,Elderly,0
73,Female,Salaried,Savings,36877.79,Transfer,UPI,Mobile,902.01,18,Elderly,0
34,Male,Business,Savings,25531.5,Cash_Withdrawal,Net_Banking,Web,3336.11,5,Adult,0
66,Female,Salaried,Savings,14302.37,Deposit,UPI,Mobile,2642.76,15,Elderly,0
19,Female,Self_Employed,Current,14222.25,Transfer,Card,Web,3633.66,6,Young,0
19,Female,Salaried,Current,32272.95,Deposit,Card,Web,387.65,6,Young,0
45,Male,Salaried,Savings,44521.88,Payment,Card,ATM,375.12,22,Middle_Aged,0
71,Male,Business,Savings,28307.36,Transfer,Cash,ATM,1786.3,18,Elderly,0
40,Female,Business,Savings,29020.9,Payment,Card,Web,1011.7,15,Middle_Aged,0
54,Female,Salaried,Savings,18055.48,Payment,Cash,Mobile,1420.61,16,Senior,0
49,Female,Salaried,Savings,19039.12,Payment,UPI,Branch,358.73,21,Middle_Aged,0
50,Male,Salaried,Savings,14271.56,Cash_Withdrawal,UPI,Mobile,255.2,18,Middle_Aged,0
18,Male,Self_Employed,Current,17767.37,Payment,UPI,ATM,1383.79,15,Young,0
36,Female,Salaried,Savings,43292.75,Cash_Withdrawal,Cash,Web,512.92,15,Middle_Aged,0
19,Male,Retired,Savings,47340.64,Cash_Withdrawal,UPI,Web,2239.72,18,Young,0
70,Female,Salaried,Savings,9694.36,Transfer,Cash,Mobile,592.66,14,Elderly,0
61,Male,Retired,Savings,13132.57,Cash_Withdrawal,Cash,Web,451.48,2,Senior,0
43,Male,Self_Employed,Savings,15240.04,Cash_Withdrawal,Cash,Mobile,113.68,14,Middle_Aged,0
49,Female,Salaried,Savings,25559.66,Deposit,Cash,Web,3818.25,15,Middle_Aged,0
23,Female,Self_Employed,Savings,6998.69,Deposit,Card,ATM,2202.95,19,Young,0
49,Female,Student,Savings,13318.03,Payment,Card,Mobile,245.75,4,Middle_Aged,0
72,Female,Self_Employed,Savings,8879.8,Cash_Withdrawal,Card,Mobile,148.79,18,Elderly,0
21,Male,Business,Savings,37063.42,Transfer,UPI,ATM,603.61,9,Young,0
72,Male,Student,Savings,26272.03,Payment,Net_Banking,Mobile,2827.99,12,Elderly,0
28,Male,Business,Savings,18582.25,Transfer,Net_Banking,ATM,647.37,14,Adult,0
73,Female,Retired,Savings,11491.68,Transfer,UPI,Branch,891.48,11,Elderly,0
34,Male,Student,Current,18813.37,Payment,Card,Mobile,2953.03,16,Adult,0
55,Female,Salaried,Savings,17124.17,Cash_Withdrawal,Net_Banking,Mobile,408.19,14,Senior,0
41,Male,Business,Current,99482.12,Transfer,UPI,Web,554.4,3,Middle_Aged,1
22,Female,Self_Employed,Current,59731.56,Payment,Cash,Mobile,1365.92,14,Young,0
69,Female,Salaried,Savings,15482.0,Payment,UPI,Mobile,828.66,16,Elderly,0
51,Male,Salaried,Savings,30704.25,Transfer,Card,Mobile,456.14,10,Senior,0
23,Female,Student,Current,57260.53,Cash_Withdrawal,Net_Banking,Mobile,2224.42,22,Young,0
39,Female,Business,Savings,15478.21,Payment,Card,Mobile,1840.58,22,Middle_Aged,0
28,Male,Salaried,Savings,8658.63,Cash_Withdrawal,Cash,Mobile,2520.41,14,Adult,0
65,Female,Retired,Current,6390.15,Deposit,Net_Banking,Branch,940.77,19,Senior,0
33,Female,Student,Savings,74444.83,Deposit,Cash,ATM,188.5,20,Adult,0
50,Female,Business,Savings,23089.89,Transfer,Cash,ATM,1108.49,6,Middle_Aged,0
26,Male,Student,Savings,33964.13,Payment,Card,Mobile,339.75,12,Adult,0
23,Male,Salaried,Current,16993.91,Payment,Cash,Mobile,144.47,21,Young,0
33,Female,Salaried,Savings,9756.42,Payment,Net_Banking,Mobile,833.21,12,Adult,0
46,Male,Salaried,Savings,11327.17,Cash_Withdrawal,Wallet,Web,1214.11,19,Middle_Aged,0
20,Female,Business,Current,9201.96,Transfer,Net_Banking,Branch,5422.31,19,Young,0
37,Female,Self_Employed,Savings,53103.36,Payment,Cash,Web,328.45,1,Middle_Aged,0
53,Female,Business,Savings,88791.74,Transfer,UPI,Mobile,2158.25,9,Senior,0
36,Female,Retired,Savings,27716.83,Payment,Net_Banking,Branch,221.65,17,Middle_Aged,0
43,Female,Self_Employed,Savings,7988.52,Payment,Cash,Mobile,3905.39,19,Middle_Aged,0
20,Male,Business,Savings,40025.31,Transfer,Net_Banking,ATM,544.22,4,Young,0
36,Female,Self_Employed,Savings,74012.39,Cash_Withdrawal,UPI,Mobile,784.6,19,Middle_Aged,0
37,Male,Business,Savings,58532.26,Transfer,Net_Banking,Web,794.71,18,Middle_Aged,0
49,Male,Student,Current,26283.46,Payment,UPI,ATM,2342.46,1,Middle_Aged,0
24,Female,Business,Savings,22301.61,Deposit,UPI,Web,257.12,3,Young,0
69,Female,Student,Savings,26115.05,Payment,Cash,Branch,918.36,15,Elderly,0
58,Male,Business,Savings,71696.64,Deposit,Cash,Mobile,577.49,20,Senior,0
50,Male,Business,Current,49428.99,Transfer,UPI,Web,9877.83,15,Middle_Aged,0
57,Male,Student,Savings,19759.59,Transfer,Cash,Mobile,370.56,16,Senior,0
56,Female,Salaried,Savings,19365.88,Transfer,Card,Mobile,82.92,14,Senior,0
35,Male,Self_Employed,Savings,18299.77,Payment,UPI,Mobile,5970.56,12,Adult,0
57,Female,Business,Savings,11479.22,Deposit,UPI,Web,1792.45,0,Senior,0
18,Female,Salaried,Savings,79337.85,Deposit,Net_Banking,Mobile,499.01,21,Young,0
28,Female,Business,Savings,14324.71,Payment,UPI,Web,1061.87,4,Adult,0
45,Male,Business,Savings,39823.83,Cash_Withdrawal,UPI,Branch,492.26,19,Middle_Aged,0
74,Female,Salaried,Current,15848.94,Transfer,Cash,Branch,154.93,0,Elderly,0
42,Female,Retired,Savings,18365.35,Cash_Withdrawal,Card,ATM,930.5,11,Middle_Aged,0
67,Female,Business,Savings,24560.52,Cash_Withdrawal,Net_Banking,ATM,923.86,22,Elderly,0
40,Female,Salaried,Savings,41614.08,Transfer,Net_Banking,Mobile,1539.71,14,Middle_Aged,0
48,Female,Self_Employed,Current,21864.53,Payment,Net_Banking,Web,414.47,3,Middle_Aged,0
47,Male,Self_Employed,Savings,10814.42,Cash_Withdrawal,UPI,Branch,505.36,18,Middle_Aged,0
59,Female,Salaried,Current,27317.02,Deposit,Card,Web,752.52,15,Senior,0
52,Female,Salaried,Current,14569.16,Cash_Withdrawal,Cash,Mobile,411.23,22,Senior,0
24,Male,Salaried,Savings,92509.87,Transfer,UPI,ATM,3417.84,17,Young,0
33,Female,Business,Savings,21851.93,Cash_Withdrawal,UPI,Web,2563.48,16,Adult,0
43,Male,Business,Savings,15766.21,Transfer,Card,ATM,654.66,10,Middle_Aged,0
65,Female,Business,Savings,130592.97,Payment,UPI,ATM,1871.66,19,Senior,0
74,Male,Retired,Savings,48587.02,Payment,Wallet,Branch,317.89,12,Elderly,0
69,Male,Self_Employed,Savings,13129.03,Deposit,Net_Banking,Mobile,691.35,23,Elderly,0
66,Female,Salaried,Current,14289.34,Transfer,UPI,ATM,4738.98,21,Elderly,0
19,Female,Salaried,Savings,39314.41,Payment,UPI,Mobile,2092.0,8,Young,0
18,Female,Salaried,Current,27855.37,Deposit,Wallet,ATM,1464.23,16,Young,0
65,Male,Salaried,Savings,54838.1,Deposit,Card,Web,766.21,16,Senior,0
29,Male,Business,Savings,15833.12,Transfer,Net_Banking,Mobile,1051.59,4,Adult,0
22,Male,Self_Employed,Current,47140.48,Deposit,Card,Branch,252.55,21,Young,0
54,Female,Salaried,Savings,4488.93,Transfer,Net_Banking,Mobile,793.63,7,Senior,0
49,Male,Salaried,Savings,23776.35,Payment,Cash,Mobile,1597.24,2,Middle_Aged,0
72,Male,Self_Employed,Savings,16420.02,Transfer,UPI,ATM,1068.04,5,Elderly,0
26,Female,Salaried,Savings,18694.09,Transfer,UPI,Mobile,1068.05,2,Adult,1
58,Male,Salaried,Savings,24777.72,Transfer,Card,Web,569.98,7,Senior,0
52,Male,Salaried,Savings,66889.88,Cash_Withdrawal,Net_Banking,Web,442.42,11,Senior,0
36,Female,Student,Savings,10686.84,Cash_Withdrawal,UPI,Mobile,403.74,3,Middle_Aged,1
65,Male,Retired,Current,4673.04,Payment,Cash,Mobile,852.45,1,Senior,0
33,Female,Student,Savings,11725.92,Payment,UPI,Web,2285.28,9,Adult,0
20,Female,Salaried,Current,60958.51,Payment,Net_Banking,Mobile,464.73,14,Young,0
37,Female,Salaried,Savings,7215.65,Payment,Net_Banking,ATM,1142.26,12,Middle_Aged,0
41,Female,Retired,Savings,17025.06,Deposit,Card,Mobile,1113.74,23,Middle_Aged,0
71,Female,Salaried,Savings,52662.66,Deposit,UPI,Web,2779.79,14,Elderly,0
73,Male,Student,Savings,25674.59,Transfer,UPI,ATM,1111.41,21,Elderly,0
50,Male,Student,Current,66367.67,Cash_Withdrawal,Cash,Mobile,247.68,18,Middle_Aged,0
41,Female,Salaried,Savings,5282.12,Payment,Card,Web,9180.87,17,Middle_Aged,0
69,Female,Salaried,Savings,20800.09,Payment,UPI,Branch,2897.75,12,Elderly,0
28,Male,Business,Savings,78412.74,Payment,Wallet,Mobile,1777.9,19,Adult,0
66,Female,Salaried,Savings,10921.57,Transfer,Card,ATM,616.77,19,Elderly,0
25,Female,Student,Current,61564.94,Deposit,Cash,Mobile,797.17,0,Young,0
53,Female,Self_Employed,Current,22280.07,Cash_Withdrawal,UPI,Mobile,264.44,15,Senior,0
55,Male,Salaried,Savings,38074.63,Deposit,UPI,Mobile,785.46,7,Senior,0
57,Male,Salaried,Savings,73992.98,Transfer,Card,Mobile,1307.27,22,Senior,0
37,Female,Salaried,Savings,37944.09,Transfer,Cash,Branch,1069.33,5,Middle_Aged,0
52,Female,Retired,Savings,16764.19,Payment,Card,Web,6326.84,2,Senior,0
65,Male,Salaried,Current,42177.84,Payment,Net_Banking,ATM,2145.2,19,Senior,0
42,Male,Self_Employed,Savings,15844.22,Cash_Withdrawal,Card,Web,2903.3,15,Middle_Aged,0
52,Female,Self_Employed,Savings,33479.66,Cash_Withdrawal,UPI,Mobile,1882.14,1,Senior,1
42,Female,Student,Savings,9882.55,Transfer,Net_Banking,Mobile,1290.31,22,Middle_Aged,0
46,Male,Retired,Current,27536.72,Deposit,Card,Branch,1728.16,1,Middle_Aged,0
35,Male,Salaried,Savings,69663.69,Payment,UPI,Branch,150.79,14,Adult,0
63,Male,Student,Savings,21183.63,Transfer,UPI,ATM,845.25,9,Senior,0
35,Female,Self_Employed,Savings,64534.31,Deposit,Net_Banking,ATM,271.03,0,Adult,0
19,Male,Business,Savings,319573.84,Transfer,Net_Banking,Mobile,336.99,21,Young,0
71,Female,Business,Current,26287.32,Transfer,UPI,Mobile,3617.81,19,Elderly,1
52,Male,Salaried,Savings,43974.0,Payment,Card,Branch,373.7,14,Senior,0
33,Male,Salaried,Savings,39398.78,Cash_Withdrawal,Cash,ATM,291.88,23,Adult,0
58,Male,Self_Employed,Savings,32211.63,Payment,Net_Banking,Mobile,1619.03,0,Senior,0
53,Male,Salaried,Savings,50529.71,Transfer,Card,Mobile,1023.85,21,Senior,0
50,Female,Salaried,Savings,22060.06,Payment,Net_Banking,ATM,1713.45,15,Middle_Aged,0
21,Female,Student,Savings,15834.79,Cash_Withdrawal,Card,Web,6348.07,17,Young,0
50,Male,Salaried,Savings,7934.23,Transfer,UPI,Web,1944.5,23,Middle_Aged,0
31,Female,Self_Employed,Savings,20451.13,Transfer,UPI,Mobile,232.62,4,Adult,1
38,Male,Salaried,Savings,55334.25,Transfer,UPI,ATM,2787.49,20,Middle_Aged,0
65,Male,Retired,Current,12684.83,Payment,Card,ATM,880.14,4,Senior,0
37,Male,Salaried,Savings,32772.41,Transfer,Net_Banking,Mobile,1297.18,22,Middle_Aged,0
73,Male,Business,Savings,24379.85,Payment,UPI,Mobile,209.89,22,Elderly,0
25,Female,Salaried,Savings,16373.6,Deposit,Card,Mobile,1813.93,9,Young,0
24,Male,Salaried,Savings,6109.3,Payment,UPI,Mobile,298.43,22,Young,0
20,Male,Salaried,Savings,80040.16,Cash_Withdrawal,Net_Banking,Mobile,1871.04,11,Young,0
34,Female,Salaried,Current,40690.6,Payment,Net_Banking,Web,532.26,9,Adult,0
50,Male,Salaried,Savings,226892.19,Payment,UPI,ATM,2257.84,1,Middle_Aged,0
65,Male,Retired,Savings,63801.4,Deposit,Card,Web,300.35,23,Senior,0
29,Male,Business,Savings,78624.23,Transfer,UPI,Mobile,230.27,0,Adult,1
68,Female,Salaried,Savings,6637.67,Transfer,Card,Web,638.17,15,Elderly,0
39,Male,Student,Savings,6545.49,Cash_Withdrawal,UPI,ATM,1431.27,17,Middle_Aged,0
72,Female,Salaried,Savings,27829.44,Transfer,Card,Web,348.92,6,Elderly,0
39,Male,Salaried,Savings,10737.61,Deposit,Cash,ATM,1344.57,3,Middle_Aged,0
63,Male,Self_Employed,Savings,15599.13,Payment,Card,Branch,2629.12,9,Senior,0
47,Female,Retired,Current,203010.17,Payment,UPI,Web,291.89,9,Middle_Aged,0
55,Male,Student,Current,69696.19,Payment,Card,Mobile,1346.65,10,Senior,0
55,Male,Salaried,Savings,12726.93,Transfer,Cash,Mobile,1881.42,2,Senior,0
62,Female,Salaried,Savings,4052.56,Payment,Card,Branch,904.26,13,Senior,0
68,Female,Business,Current,11897.1,Deposit,UPI,Branch,1009.81,12,Elderly,0
71,Female,Salaried,Savings,17227.19,Transfer,Net_Banking,Branch,268.03,18,Elderly,0
25,Female,Business,Savings,20805.84,Transfer,Card,Web,1698.42,9,Young,0
44,Female,Business,Current,9669.8,Payment,UPI,Web,1165.86,14,Middle_Aged,0
44,Male,Student,Current,66428.43,Payment,UPI,Mobile,1274.96,7,Middle_Aged,0
51,Female,Self_Employed,Savings,15227.09,Transfer,Wallet,ATM,8644.47,16,Senior,0
38,Male,Salaried,Savings,45200.44,Payment,UPI,ATM,891.88,5,Middle_Aged,0
47,Male,Business,Savings,28088.34,Deposit,Net_Banking,Web,1514.22,6,Middle_Aged,0
50,Male,Salaried,Savings,56998.58,Payment,Card,Mobile,3976.32,13,Middle_Aged,0
45,Female,Salaried,Savings,22240.36,Transfer,Card,Mobile,1044.93,7,Middle_Aged,0
64,Female,Self_Employed,Savings,12836.02,Deposit,Cash,Mobile,535.62,11,Senior,0
50,Male,Self_Employed,Savings,16666.07,Transfer,UPI,Web,1633.33,17,Middle_Aged,0
22,Female,Self_Employed,Savings,16855.16,Payment,UPI,Mobile,552.8,13,Young,0
65,Female,Salaried,Savings,140314.34,Transfer,UPI,Mobile,3638.55,0,Senior,1
36,Female,Business,Savings,28601.21,Transfer,Net_Banking,Mobile,1834.85,3,Middle_Aged,0
21,Female,Salaried,Savings,27003.08,Payment,Card,ATM,463.56,16,Young,0
52,Male,Self_Employed,Savings,54481.76,Payment,Card,Branch,315.08,17,Senior,0
66,Male,Salaried,Current,26901.68,Payment,UPI,Mobile,1282.22,18,Elderly,0
34,Female,Retired,Savings,65995.45,Deposit,Card,Branch,1415.87,3,Adult,0
61,Male,Retired,Current,19977.02,Payment,UPI,Mobile,315.84,5,Senior,0
45,Female,Business,Current,18418.08,Transfer,UPI,ATM,2406.06,7,Middle_Aged,0
47,Female,Salaried,Savings,12280.66,Payment,UPI,ATM,2132.93,14,Middle_Aged,0
46,Male,Salaried,Savings,118188.71,Payment,Cash,ATM,1543.12,19,Middle_Aged,0
63,Male,Self_Employed,Current,25441.58,Cash_Withdrawal,Card,ATM,2339.77,0,Senior,0
70,Male,Salaried,Savings,10517.19,Cash_Withdrawal,Card,ATM,407.6,4,Elderly,0
23,Female,Self_Employed,Savings,31491.15,Payment,Cash,Branch,432.06,15,Young,0
52,Male,Salaried,Savings,15993.81,Transfer,Wallet,Branch,845.79,20,Senior,0
58,Female,Salaried,Savings,19698.92,Payment,Net_Banking,Branch,581.47,5,Senior,0
54,Male,Self_Employed,Current,34496.14,Transfer,Card,Branch,1811.95,20,Senior,0
41,Male,Business,Current,90833.93,Deposit,Cash,Mobile,2454.1,9,Middle_Aged,0
46,Female,Business,Current,29180.86,Deposit,Net_Banking,Mobile,542.68,9,Middle_Aged,0
66,Female,Salaried,Savings,15232.26,Payment,Card,ATM,460.45,4,Elderly,0
63,Female,Salaried,Savings,17962.98,Deposit,Card,ATM,2578.07,7,Senior,0
70,Female,Self_Employed,Savings,45485.9,Payment,UPI,Web,410.76,0,Elderly,0
48,Female,Salaried,Savings,5615.73,Transfer,Net_Banking,Branch,824.22,4,Middle_Aged,0
52,Female,Retired,Savings,11682.58,Payment,UPI,Web,399.46,0,Senior,1
50,Female,Self_Employed,Savings,31892.2,Cash_Withdrawal,UPI,Web,606.76,6,Middle_Aged,0
69,Female,Salaried,Savings,6868.25,Cash_Withdrawal,Card,Mobile,243.14,14,Elderly,0
38,Male,Business,Savings,20951.92,Payment,Net_Banking,Mobile,3952.78,22,Middle_Aged,0
49,Female,Business,Savings,18350.06,Transfer,Card,Mobile,3017.88,23,Middle_Aged,0
40,Female,Salaried,Savings,54282.59,Cash_Withdrawal,Net_Banking,Branch,489.29,13,Middle_Aged,0
50,Male,Retired,Savings,22021.49,Payment,Net_Banking,Branch,1742.47,22,Middle_Aged,0
20,Female,Student,Savings,69518.84,Deposit,Card,Mobile,260.94,8,Young,0
35,Male,Salaried,Savings,28655.44,Transfer,Card,ATM,2042.15,7,Adult,0
42,Male,Salaried,Current,111431.01,Cash_Withdrawal,Card,Mobile,453.04,7,Middle_Aged,0
59,Female,Salaried,Current,8866.26,Transfer,Net_Banking,Mobile,3705.51,2,Senior,0
48,Male,Business,Current,98095.96,Transfer,Cash,Branch,1827.97,19,Middle_Aged,0
71,Female,Self_Employed,Savings,19362.59,Deposit,Net_Banking,ATM,760.86,3,Elderly,0
20,Male,Business,Savings,87479.5,Payment,UPI,Mobile,729.09,16,Young,0
57,Male,Business,Savings,69437.88,Transfer,UPI,Mobile,1267.1,5,Senior,0
63,Male,Student,Savings,2747.57,Payment,UPI,Branch,435.32,1,Senior,0
41,Female,Salaried,Savings,39471.52,Cash_Withdrawal,Card,Mobile,3377.56,8,Middle_Aged,0
67,Female,Salaried,Current,59760.24,Deposit,Net_Banking,Web,1489.18,13,Elderly,0
49,Male,Salaried,Savings,77876.09,Cash_Withdrawal,UPI,Mobile,2876.6,0,Middle_Aged,1
64,Male,Salaried,Current,10495.38,Payment,UPI,ATM,94.67,16,Senior,0
39,Female,Salaried,Current,43142.95,Transfer,UPI,Mobile,1114.41,10,Middle_Aged,0
40,Female,Salaried,Savings,31447.0,Payment,Card,Web,1405.38,5,Middle_Aged,0
19,Male,Salaried,Savings,37991.86,Transfer,UPI,Branch,1092.85,0,Young,0
44,Male,Retired,Savings,59823.22,Payment,UPI,Mobile,1121.59,18,Middle_Aged,0
59,Female,Retired,Savings,67871.26,Transfer,Net_Banking,Mobile,795.42,15,Senior,0
19,Female,Business,Savings,15921.18,Cash_Withdrawal,Card,Web,10481.51,17,Young,0
43,Female,Self_Employed,Savings,33267.47,Deposit,Cash,Web,1398.64,10,Middle_Aged,0
34,Female,Self_Employed,Savings,27803.25,Transfer,Card,ATM,1239.51,8,Adult,0
57,Female,Business,Savings,22214.89,Transfer,Cash,Mobile,2797.75,20,Senior,0
50,Male,Student,Savings,23980.11,Cash_Withdrawal,UPI,Web,627.0,5,Middle_Aged,0
26,Female,Self_Employed,Savings,31469.99,Payment,Net_Banking,Mobile,302.54,1,Adult,0
60,Male,Business,Savings,16620.88,Transfer,Cash,Branch,2716.72,7,Senior,0
71,Female,Business,Savings,54525.81,Transfer,UPI,Branch,785.63,21,Elderly,0
65,Male,Self_Employed,Savings,74268.83,Deposit,UPI,ATM,4275.79,15,Senior,0
56,Female,Salaried,Savings,13954.24,Transfer,UPI,Web,4015.88,7,Senior,0
46,Female,Business,Current,77239.32,Cash_Withdrawal,Net_Banking,Mobile,107.49,7,Middle_Aged,0
59,Male,Retired,Savings,13975.28,Cash_Withdrawal,Card,Web,1178.9,13,Senior,0
72,Male,Salaried,Savings,55173.03,Payment,Card,Web,3218.29,0,Elderly,0
43,Female,Business,Savings,77125.02,Deposit,UPI,Mobile,189.57,6,Middle_Aged,0
52,Female,Salaried,Savings,24944.07,Deposit,Net_Banking,Branch,1581.39,1,Senior,0
67,Female,Business,Savings,14067.21,Cash_Withdrawal,Net_Banking,Web,2117.3,14,Elderly,0
42,Female,Self_Employed,Savings,16798.65,Transfer,Card,Branch,1038.19,23,Middle_Aged,0
41,Female,Student,Savings,35935.66,Cash_Withdrawal,Card,Mobile,1045.72,17,Middle_Aged,0
30,Male,Business,Savings,129537.22,Deposit,Net_Banking,Mobile,3634.82,3,Adult,0
24,Male,Salaried,Savings,6945.25,Transfer,Cash,Web,246.03,17,Young,0
74,Female,Business,Savings,29149.52,Transfer,Card,Branch,2517.72,22,Elderly,0
53,Male,Salaried,Savings,25072.89,Payment,UPI,Mobile,1735.89,4,Senior,1
62,Male,Self_Employed,Savings,18672.04,Transfer,Net_Banking,ATM,4030.79,15,Senior,0
37,Male,Salaried,Current,25219.54,Transfer,UPI,Mobile,424.9,12,Middle_Aged,0
18,Female,Business,Savings,17435.13,Transfer,UPI,Mobile,4801.64,8,Young,1
25,Male,Salaried,Current,72731.1,Cash_Withdrawal,Net_Banking,Web,273.57,4,Young,0
63,Female,Self_Employed,Savings,78746.97,Payment,Card,Web,788.08,7,Senior,0
33,Male,Self_Employed,Savings,28868.55,Transfer,Net_Banking,Branch,342.69,17,Adult,0
31,Female,Retired,Current,24030.62,Cash_Withdrawal,Card,Web,2263.65,2,Adult,0
29,Male,Self_Employed,Savings,18134.49,Payment,Net_Banking,Mobile,511.87,5,Adult,0
68,Female,Self_Employed,Current,28918.16,Cash_Withdrawal,Card,Web,3410.87,10,Elderly,0
40,Female,Salaried,Savings,117979.34,Payment,Cash,Web,202.73,22,Middle_Aged,0
32,Male,Salaried,Savings,24760.69,Payment,UPI,Branch,702.56,13,Adult,0
45,Female,Salaried,Current,13745.33,Transfer,UPI,ATM,6541.8,23,Middle_Aged,0
51,Female,Self_Employed,Savings,19570.73,Cash_Withdrawal,Card,ATM,512.49,18,Senior,0
19,Female,Self_Employed,Current,49157.07,Cash_Withdrawal,Cash,ATM,3163.2,6,Young,0
49,Female,Salaried,Savings,15150.83,Deposit,UPI,Mobile,2200.21,23,Middle_Aged,0
40,Female,Self_Employed,Savings,26187.44,Deposit,Card,ATM,296.65,9,Middle_Aged,0
39,Female,Business,Savings,39273.55,Transfer,UPI,Web,1354.74,14,Middle_Aged,0
68,Female,Business,Current,16098.96,Payment,UPI,Web,5057.75,5,Elderly,0
42,Female,Salaried,Savings,6558.23,Transfer,Cash,Mobile,727.79,19,Middle_Aged,0
39,Male,Student,Savings,11417.38,Transfer,Wallet,Mobile,550.08,5,Middle_Aged,0
39,Male,Salaried,Current,13534.36,Payment,UPI,Branch,1523.04,15,Middle_Aged,0
66,Female,Business,Current,22402.73,Payment,Card,Mobile,884.68,8,Elderly,0
69,Female,Salaried,Savings,27873.72,Cash_Withdrawal,Wallet,Mobile,245.68,18,Elderly,0
59,Male,Salaried,Savings,51998.03,Transfer,Cash,Mobile,878.48,17,Senior,0
23,Male,Self_Employed,Savings,10078.86,Payment,Cash,Mobile,674.98,4,Young,0
32,Male,Self_Employed,Savings,46287.61,Payment,UPI,ATM,959.06,15,Adult,0
71,Female,Self_Employed,Savings,19995.47,Payment,Card,Web,99.15,6,Elderly,0
60,Male,Salaried,Savings,6448.24,Payment,Card,Branch,1578.65,18,Senior,0
54,Female,Salaried,Savings,27196.92,Deposit,Card,Web,214.02,4,Senior,0
50,Female,Business,Current,77111.99,Transfer,Net_Banking,Mobile,2313.91,19,Middle_Aged,0
25,Male,Salaried,Current,54529.2,Cash_Withdrawal,Card,Mobile,3203.85,10,Young,0
70,Female,Student,Savings,25310.73,Transfer,UPI,Branch,150.56,22,Elderly,0
61,Female,Salaried,Savings,66211.97,Transfer,Net_Banking,Branch,4003.87,17,Senior,0
61,Female,Salaried,Savings,31375.36,Transfer,Card,Mobile,975.67,6,Senior,0
22,Female,Salaried,Savings,58979.85,Payment,Net_Banking,Mobile,3219.43,17,Young,0
56,Male,Salaried,Savings,7120.39,Payment,Card,Web,2782.62,2,Senior,0
21,Male,Salaried,Savings,9899.72,Deposit,UPI,Mobile,258.45,4,Young,1
23,Female,Student,Savings,48205.52,Cash_Withdrawal,Card,ATM,467.27,22,Young,0
62,Female,Business,Savings,92173.32,Payment,Card,Mobile,5509.41,12,Senior,0
49,Male,Business,Savings,37565.32,Cash_Withdrawal,UPI,Mobile,317.17,15,Middle_Aged,0
69,Female,Business,Savings,18072.21,Cash_Withdrawal,Card,Mobile,1573.29,21,Elderly,0
47,Male,Salaried,Savings,13623.99,Cash_Withdrawal,Card,Mobile,514.97,11,Middle_Aged,0
64,Female,Salaried,Savings,20905.09,Transfer,Cash,ATM,444.08,6,Senior,0
52,Female,Business,Savings,71033.69,Cash_Withdrawal,UPI,Web,1076.34,21,Senior,0
72,Male,Business,Current,20454.91,Payment,Card,Web,9812.05,12,Elderly,0
57,Male,Salaried,Current,62206.14,Payment,UPI,ATM,2363.95,0,Senior,0
69,Male,Salaried,Savings,45345.15,Payment,Card,Branch,382.34,14,Elderly,0
33,Male,Self_Employed,Savings,105994.3,Cash_Withdrawal,UPI,Mobile,1333.35,20,Adult,0
30,Female,Salaried,Savings,31577.8,Payment,UPI,ATM,170.82,11,Adult,0
67,Male,Salaried,Savings,25856.65,Payment,UPI,Mobile,115.04,16,Elderly,0
59,Female,Business,Savings,64740.2,Payment,UPI,Web,1298.71,22,Senior,0
47,Male,Salaried,Savings,12730.93,Transfer,Card,Mobile,2241.6,19,Middle_Aged,0
36,Male,Salaried,Savings,18859.77,Payment,Wallet,ATM,5224.0,4,Middle_Aged,0
34,Female,Salaried,Savings,7016.33,Cash_Withdrawal,Card,Web,1592.27,16,Adult,0
73,Male,Self_Employed,Savings,9862.95,Payment,Card,Mobile,1103.67,23,Elderly,0
36,Male,Salaried,Savings,125328.99,Cash_Withdrawal,Net_Banking,Web,781.41,14,Middle_Aged,0
45,Male,Salaried,Savings,46809.98,Deposit,Net_Banking,Web,1859.01,19,Middle_Aged,0
72,Male,Salaried,Savings,8986.14,Payment,Net_Banking,Branch,325.08,18,Elderly,0
43,Female,Self_Employed,Savings,69972.89,Transfer,UPI,ATM,556.53,0,Middle_Aged,0
54,Female,Student,Savings,15321.95,Cash_Withdrawal,Cash,ATM,336.37,3,Senior,0
43,Male,Retired,Current,44925.48,Payment,Net_Banking,Branch,649.25,2,Middle_Aged,0
70,Male,Salaried,Current,44391.84,Payment,Net_Banking,Web,531.25,7,Elderly,0
40,Male,Retired,Savings,101925.0,Cash_Withdrawal,Card,Web,496.46,8,Middle_Aged,0
26,Female,Retired,Savings,17497.55,Payment,UPI,ATM,578.32,11,Adult,0
29,Female,Salaried,Savings,14880.64,Transfer,Wallet,ATM,1353.99,4,Adult,0
70,Female,Salaried,Current,3129.93,Transfer,Card,ATM,3901.03,8,Elderly,0
18,Female,Salaried,Savings,24405.93,Deposit,Card,Mobile,1463.04,0,Young,0
18,Male,Salaried,Savings,48062.8,Cash_Withdrawal,Card,ATM,618.15,22,Young,0
64,Male,Business,Current,53614.73,Deposit,Card,Mobile,1699.36,10,Senior,0
51,Male,Salaried,Savings,73270.95,Cash_Withdrawal,UPI,Mobile,1224.43,6,Senior,0
49,Female,Salaried,Savings,33922.87,Payment,UPI,ATM,1298.89,21,Middle_Aged,0
71,Male,Salaried,Savings,40288.64,Transfer,Wallet,ATM,1071.55,19,Elderly,0
65,Female,Self_Employed,Savings,28410.0,Payment,Card,Mobile,6159.45,13,Senior,0
42,Female,Salaried,Savings,47380.4,Payment,Card,ATM,1210.51,2,Middle_Aged,0
57,Male,Student,Savings,12741.33,Cash_Withdrawal,Net_Banking,ATM,625.56,10,Senior,0
62,Male,Student,Savings,8718.72,Payment,Card,Mobile,504.11,16,Senior,0
70,Male,Self_Employed,Savings,13863.43,Payment,UPI,Mobile,2701.12,17,Elderly,0
18,Female,Business,Current,31917.16,Deposit,Card,Web,334.8,18,Young,0
33,Female,Salaried,Savings,9505.83,Cash_Withdrawal,UPI,ATM,4259.86,17,Adult,0
56,Male,Salaried,Savings,16210.34,Payment,UPI,Web,161.31,5,Senior,0
22,Male,Salaried,Current,16630.02,Payment,Cash,Branch,3737.91,14,Young,0
39,Female,Student,Current,50284.74,Payment,Net_Banking,Web,2433.85,6,Middle_Aged,0
46,Male,Retired,Savings,45618.85,Cash_Withdrawal,Cash,ATM,706.58,4,Middle_Aged,0
72,Female,Self_Employed,Current,28463.81,Cash_Withdrawal,UPI,Mobile,517.91,4,Elderly,1
20,Female,Salaried,Savings,38593.99,Transfer,Card,Web,3759.91,6,Young,0
29,Male,Self_Employed,Current,39207.85,Transfer,UPI,Branch,6630.82,21,Adult,0
43,Male,Salaried,Savings,20112.65,Cash_Withdrawal,Card,Branch,593.72,11,Middle_Aged,0
33,Male,Business,Savings,17430.91,Transfer,UPI,Mobile,1959.49,7,Adult,0
68,Male,Self_Employed,Current,91982.09,Transfer,Net_Banking,Web,2920.46,17,Elderly,0
54,Female,Salaried,Savings,3672.76,Payment,UPI,Branch,2004.07,17,Senior,0
39,Female,Self_Employed,Savings,14867.86,Deposit,UPI,Web,1157.84,16,Middle_Aged,0
74,Female,Salaried,Savings,22856.12,Transfer,Card,Mobile,742.61,22,Elderly,0
46,Male,Salaried,Savings,42106.66,Payment,UPI,Mobile,1448.1,10,Middle_Aged,0
31,Female,Student,Savings,66729.69,Payment,Cash,ATM,136.22,14,Adult,0
45,Male,Salaried,Current,118822.41,Deposit,Net_Banking,Mobile,4191.21,19,Middle_Aged,0
22,Male,Business,Savings,25000.01,Deposit,UPI,Web,198.99,5,Young,0
64,Male,Retired,Savings,26376.05,Payment,Card,Branch,474.14,11,Senior,0
66,Male,Business,Current,35957.32,Transfer,Wallet,Branch,782.64,22,Elderly,0
47,Male,Self_Employed,Savings,17590.31,Payment,Cash,Mobile,403.96,6,Middle_Aged,0
63,Male,Self_Employed,Savings,10431.76,Transfer,Wallet,Web,354.87,7,Senior,0
69,Female,Salaried,Savings,24909.38,Deposit,UPI,Mobile,4489.41,3,Elderly,1
22,Male,Salaried,Savings,48839.65,Transfer,UPI,Web,6610.14,2,Young,1
29,Female,Student,Savings,22151.52,Transfer,UPI,Web,5159.09,2,Adult,1
33,Female,Business,Current,37449.49,Transfer,UPI,Mobile,2528.84,9,Adult,1
43,Male,Retired,Savings,6032.68,Cash_Withdrawal,Cash,Mobile,12894.46,23,Middle_Aged,0
43,Male,Salaried,Savings,27302.23,Payment,UPI,ATM,840.25,14,Middle_Aged,0
65,Male,Business,Savings,19481.93,Transfer,Card,ATM,763.36,12,Senior,0
38,Female,Business,Savings,9700.19,Transfer,UPI,Branch,1109.06,18,Middle_Aged,0
56,Male,Business,Savings,45513.76,Payment,Net_Banking,ATM,4578.11,7,Senior,0
53,Female,Salaried,Savings,117773.25,Transfer,UPI,ATM,1970.47,17,Senior,0
50,Male,Salaried,Savings,59395.11,Payment,UPI,Mobile,6170.12,4,Middle_Aged,1
47,Male,Student,Current,62504.84,Payment,Cash,Branch,1170.66,20,Middle_Aged,0
54,Female,Salaried,Savings,47571.14,Deposit,UPI,Mobile,245.04,6,Senior,0
40,Female,Student,Savings,45123.62,Transfer,Card,ATM,559.34,4,Middle_Aged,0
27,Male,Business,Current,6377.01,Payment,Card,Web,3055.6,18,Adult,0
71,Female,Student,Savings,24285.61,Cash_Withdrawal,Net_Banking,Mobile,668.73,16,Elderly,0
22,Female,Self_Employed,Savings,40414.17,Cash_Withdrawal,Cash,Mobile,1206.36,18,Young,0
53,Female,Salaried,Savings,41155.95,Payment,Cash,Web,1403.56,3,Senior,0
51,Female,Business,Savings,74411.44,Payment,Wallet,Mobile,6688.76,21,Senior,0
69,Female,Salaried,Savings,11779.1,Payment,Wallet,Branch,2642.42,23,Elderly,0
48,Male,Salaried,Savings,43731.21,Cash_Withdrawal,Cash,Mobile,2171.77,6,Middle_Aged,0
27,Male,Retired,Savings,11475.47,Cash_Withdrawal,Card,Mobile,1284.31,23,Adult,0
36,Female,Student,Savings,22711.81,Cash_Withdrawal,Cash,Mobile,477.74,21,Middle_Aged,0
49,Male,Salaried,Savings,25602.1,Payment,Card,Web,1397.72,5,Middle_Aged,0
18,Male,Self_Employed,Savings,53640.34,Transfer,Wallet,Mobile,9659.86,13,Young,0
73,Female,Student,Current,48823.29,Deposit,Cash,ATM,1832.13,21,Elderly,0
22,Male,Student,Current,29621.76,Cash_Withdrawal,UPI,Mobile,631.81,18,Young,0
62,Female,Salaried,Current,4809.6,Transfer,UPI,Mobile,721.55,19,Senior,0
21,Female,Student,Savings,38402.08,Transfer,UPI,Web,4530.71,10,Young,0
33,Male,Business,Savings,21717.18,Cash_Withdrawal,UPI,Branch,643.88,21,Adult,0
41,Female,Salaried,Savings,81915.6,Payment,UPI,Web,897.13,6,Middle_Aged,0
33,Female,Self_Employed,Savings,67696.84,Cash_Withdrawal,Card,Mobile,350.04,2,Adult,0
72,Female,Self_Employed,Savings,12702.85,Payment,UPI,Mobile,830.53,19,Elderly,0
19,Female,Business,Savings,42861.93,Payment,Cash,Web,1759.89,21,Young,0
66,Female,Business,Savings,43544.06,Transfer,UPI,Branch,815.24,16,Elderly,0
45,Male,Self_Employed,Savings,41082.88,Deposit,UPI,Mobile,1123.98,10,Middle_Aged,0
49,Male,Salaried,Current,37036.71,Deposit,Card,ATM,346.22,14,Middle_Aged,0
44,Female,Self_Employed,Savings,44539.14,Payment,Net_Banking,ATM,628.26,6,Middle_Aged,1
37,Female,Self_Employed,Savings,89427.96,Deposit,Card,Mobile,9248.15,14,Middle_Aged,0
41,Male,Business,Savings,17307.51,Payment,Card,Mobile,959.14,16,Middle_Aged,0
29,Female,Salaried,Savings,13034.47,Payment,Card,Branch,1576.44,10,Adult,0
67,Male,Salaried,Savings,50320.72,Payment,UPI,Mobile,491.72,11,Elderly,0
52,Female,Salaried,Savings,5962.89,Transfer,Card,Mobile,1154.85,12,Senior,0
50,Female,Self_Employed,Savings,45397.81,Payment,UPI,Mobile,836.61,10,Middle_Aged,0
50,Female,Student,Current,39401.19,Payment,Card,Branch,3295.41,10,Middle_Aged,0
68,Female,Self_Employed,Current,4119.96,Deposit,Cash,Mobile,3142.57,8,Elderly,0
60,Female,Salaried,Current,16170.29,Deposit,Cash,Mobile,3492.71,10,Senior,0
54,Female,Salaried,Current,94919.04,Cash_Withdrawal,UPI,ATM,1188.32,3,Senior,0
29,Female,Student,Savings,8385.5,Cash_Withdrawal,Net_Banking,Mobile,8432.5,1,Adult,0
20,Male,Student,Savings,31890.81,Payment,UPI,Web,2449.86,22,Young,0
18,Male,Salaried,Savings,12041.04,Transfer,UPI,Mobile,262.56,3,Young,1
50,Male,Salaried,Savings,15257.75,Payment,UPI,Mobile,5128.04,13,Middle_Aged,0
57,Female,Retired,Savings,124623.82,Payment,Card,Web,1090.34,4,Senior,0
27,Female,Business,Current,29695.64,Transfer,UPI,Mobile,3423.66,16,Adult,1
60,Female,Salaried,Savings,40682.79,Transfer,Cash,ATM,382.68,11,Senior,0
61,Female,Business,Savings,24588.36,Cash_Withdrawal,Net_Banking,Branch,1021.25,5,Senior,0
46,Female,Self_Employed,Savings,8005.57,Payment,UPI,Mobile,2321.47,11,Middle_Aged,0
30,Female,Business,Current,10426.04,Transfer,Card,Web,1399.64,14,Adult,0
29,Female,Student,Savings,69060.92,Transfer,UPI,Web,944.44,22,Adult,0
48,Male,Self_Employed,Current,30403.52,Cash_Withdrawal,Card,Branch,93.84,18,Middle_Aged,0
63,Female,Self_Employed,Current,14527.07,Payment,UPI,Mobile,523.3,9,Senior,0
19,Male,Salaried,Current,26432.74,Payment,Wallet,Mobile,412.73,1,Young,0
68,Male,Student,Current,45673.72,Transfer,Card,Mobile,170.48,11,Elderly,0
67,Female,Salaried,Savings,38699.85,Transfer,Net_Banking,Mobile,539.47,11,Elderly,0
52,Female,Salaried,Savings,14532.88,Payment,UPI,Mobile,7035.44,6,Senior,0
40,Male,Self_Employed,Savings,7629.35,Deposit,Net_Banking,Branch,3489.87,0,Middle_Aged,0
34,Male,Salaried,Savings,19425.91,Deposit,Net_Banking,Branch,475.71,17,Adult,0
43,Female,Self_Employed,Savings,65332.11,Transfer,Cash,Mobile,608.92,2,Middle_Aged,0
25,Female,Salaried,Current,53289.87,Cash_Withdrawal,Net_Banking,Mobile,610.16,19,Young,0
46,Male,Salaried,Savings,37358.76,Transfer,UPI,ATM,2335.67,4,Middle_Aged,0
43,Female,Salaried,Current,23465.71,Transfer,Card,Branch,1644.18,19,Middle_Aged,0
27,Female,Business,Savings,17793.75,Transfer,Cash,Mobile,538.01,14,Adult,0
43,Female,Self_Employed,Savings,23816.58,Cash_Withdrawal,Card,Mobile,603.87,9,Middle_Aged,0
51,Male,Self_Employed,Current,50282.75,Deposit,Net_Banking,Branch,3233.39,18,Senior,0
68,Male,Salaried,Savings,60364.26,Deposit,UPI,Mobile,5036.09,0,Elderly,1
58,Male,Salaried,Savings,21819.75,Transfer,UPI,Web,447.37,6,Senior,0
24,Female,Student,Savings,204635.38,Transfer,UPI,Mobile,975.52,21,Young,0
21,Female,Business,Savings,28967.3,Payment,Net_Banking,Web,1246.9,17,Young,0
70,Male,Student,Savings,20382.57,Cash_Withdrawal,Net_Banking,Mobile,907.77,1,Elderly,0
67,Male,Salaried,Savings,87599.94,Payment,Card,Mobile,3395.69,18,Elderly,0
62,Male,Business,Savings,5267.77,Deposit,Card,Branch,941.73,23,Senior,0
28,Female,Retired,Savings,39498.85,Transfer,Cash,Web,7391.86,23,Adult,0
46,Male,Salaried,Savings,25381.13,Transfer,Cash,Mobile,3644.51,9,Middle_Aged,0
73,Male,Salaried,Savings,85694.8,Transfer,UPI,Mobile,552.04,14,Elderly,0
53,Female,Business,Savings,43649.13,Payment,Cash,ATM,1172.43,9,Senior,0
42,Female,Business,Current,30069.95,Transfer,Card,Web,412.99,9,Middle_Aged,0
38,Female,Salaried,Savings,45711.58,Deposit,Card,Mobile,741.37,11,Middle_Aged,0
74,Male,Self_Employed,Savings,11562.64,Payment,UPI,Web,2619.36,7,Elderly,0
53,Female,Self_Employed,Savings,58305.74,Deposit,Net_Banking,Mobile,1402.12,22,Senior,0
27,Female,Salaried,Current,9175.86,Cash_Withdrawal,Net_Banking,Mobile,9068.15,13,Adult,0
54,Male,Salaried,Savings,35839.21,Cash_Withdrawal,Cash,Web,323.13,1,Senior,0
26,Female,Salaried,Savings,27680.72,Cash_Withdrawal,Cash,Mobile,1061.07,16,Adult,0
41,Male,Self_Employed,Savings,6565.32,Transfer,Card,Branch,661.32,5,Middle_Aged,0
52,Male,Student,Savings,28428.68,Transfer,Cash,Mobile,799.42,7,Senior,0
66,Female,Business,Savings,33711.33,Deposit,Card,Mobile,1143.56,0,Elderly,0
52,Female,Business,Savings,15932.23,Cash_Withdrawal,Net_Banking,Mobile,557.28,2,Senior,0
65,Female,Salaried,Savings,11968.85,Payment,Card,ATM,2858.09,14,Senior,0
53,Female,Business,Current,39884.45,Payment,Cash,Mobile,6319.61,16,Senior,0
35,Female,Retired,Savings,35948.84,Payment,Cash,Mobile,106.11,6,Adult,0
66,Female,Student,Savings,32255.87,Payment,Cash,Web,4415.62,13,Elderly,0
56,Male,Salaried,Savings,27094.16,Payment,Net_Banking,ATM,13585.96,23,Senior,0
49,Male,Salaried,Current,17098.56,Payment,Card,Mobile,1325.73,2,Middle_Aged,0
41,Female,Self_Employed,Current,165668.68,Transfer,Net_Banking,Mobile,595.48,17,Middle_Aged,0
40,Male,Retired,Savings,21191.07,Cash_Withdrawal,Card,ATM,618.82,21,Middle_Aged,0
49,Female,Salaried,Savings,13465.81,Transfer,Wallet,ATM,806.1,4,Middle_Aged,0
54,Male,Self_Employed,Savings,28100.48,Cash_Withdrawal,Net_Banking,Mobile,1686.5,19,Senior,0
29,Male,Salaried,Savings,23277.61,Payment,UPI,Mobile,715.21,21,Adult,0
66,Male,Salaried,Savings,20801.7,Transfer,Net_Banking,ATM,1012.46,14,Elderly,0
72,Female,Salaried,Savings,120501.91,Payment,Card,ATM,421.62,5,Elderly,0
30,Male,Salaried,Savings,10896.55,Cash_Withdrawal,Wallet,Web,694.51,2,Adult,1
40,Female,Salaried,Savings,27721.11,Transfer,Cash,Web,726.17,17,Middle_Aged,0
42,Male,Salaried,Savings,11497.23,Deposit,UPI,Mobile,1058.19,23,Middle_Aged,0
52,Male,Student,Savings,17451.49,Deposit,Card,Branch,255.89,19,Senior,0
58,Male,Self_Employed,Savings,107892.73,Transfer,Card,ATM,788.51,21,Senior,0
47,Male,Salaried,Savings,33696.73,Cash_Withdrawal,Net_Banking,Mobile,884.94,2,Middle_Aged,0
34,Male,Salaried,Savings,33372.8,Transfer,Cash,Web,1319.19,7,Adult,0
66,Female,Salaried,Savings,12688.04,Transfer,Card,Web,4440.58,18,Elderly,0
37,Female,Business,Savings,19154.69,Payment,Cash,Branch,990.94,17,Middle_Aged,0
65,Male,Student,Savings,115670.07,Transfer,Card,Branch,324.65,14,Senior,0
42,Male,Salaried,Savings,40114.37,Deposit,UPI,ATM,1251.47,22,Middle_Aged,0
39,Male,Retired,Savings,20500.98,Payment,UPI,Branch,539.81,13,Middle_Aged,0
30,Male,Salaried,Savings,38272.46,Transfer,UPI,Branch,526.01,15,Adult,0
36,Female,Salaried,Savings,33327.26,Transfer,UPI,Mobile,815.73,2,Middle_Aged,1
66,Male,Self_Employed,Current,13745.25,Transfer,UPI,Branch,652.33,14,Elderly,0
53,Female,Student,Savings,20029.34,Payment,UPI,ATM,378.02,18,Senior,0
29,Male,Salaried,Current,163346.48,Deposit,Net_Banking,Web,675.06,7,Adult,0
58,Female,Salaried,Savings,36812.84,Transfer,UPI,Mobile,1729.69,1,Senior,1
36,Male,Salaried,Current,7667.66,Payment,UPI,ATM,1142.0,16,Middle_Aged,0
29,Male,Salaried,Savings,40464.01,Cash_Withdrawal,UPI,Mobile,406.39,11,Adult,0
26,Female,Student,Savings,76303.24,Payment,Card,Mobile,463.85,18,Adult,0
24,Male,Salaried,Savings,13049.4,Transfer,Card,Web,1240.48,10,Young,0
45,Male,Student,Savings,18667.25,Transfer,UPI,Mobile,408.64,17,Middle_Aged,0
31,Male,Self_Employed,Current,86078.66,Payment,Cash,Mobile,447.29,12,Adult,0
48,Female,Salaried,Current,27665.18,Deposit,Cash,ATM,619.54,13,Middle_Aged,0
69,Male,Salaried,Savings,23997.32,Payment,Card,Web,414.94,11,Elderly,0
36,Male,Self_Employed,Savings,9238.67,Payment,Card,Web,1212.86,14,Middle_Aged,0
64,Female,Business,Savings,63351.45,Transfer,Card,Web,806.19,22,Senior,0
33,Female,Student,Current,23137.84,Payment,UPI,Web,4465.97,20,Adult,0
70,Female,Retired,Savings,4737.26,Cash_Withdrawal,Cash,Mobile,343.15,7,Elderly,0
22,Male,Salaried,Savings,7645.63,Payment,Net_Banking,Mobile,3466.07,1,Young,0
52,Male,Student,Savings,17166.85,Deposit,Cash,Mobile,1390.39,7,Senior,0
29,Male,Self_Employed,Current,11404.08,Deposit,UPI,Branch,4871.0,22,Adult,0
42,Female,Salaried,Savings,12929.03,Deposit,Net_Banking,Web,4252.91,4,Middle_Aged,0
69,Male,Salaried,Current,175559.96,Deposit,Card,Mobile,715.46,1,Elderly,0
38,Male,Salaried,Current,47382.98,Cash_Withdrawal,UPI,Mobile,268.04,9,Middle_Aged,0
53,Female,Salaried,Savings,3422.49,Payment,Card,Mobile,946.2,22,Senior,0
70,Female,Salaried,Savings,20921.71,Payment,Cash,Web,151.92,9,Elderly,0
40,Female,Self_Employed,Current,25044.39,Cash_Withdrawal,Net_Banking,Mobile,2121.03,3,Middle_Aged,0
33,Female,Salaried,Savings,8254.0,Cash_Withdrawal,Card,Web,1276.1,3,Adult,0
74,Female,Self_Employed,Current,41254.23,Payment,UPI,Mobile,602.48,7,Elderly,0
56,Male,Salaried,Savings,5254.75,Transfer,Cash,Mobile,699.55,5,Senior,0
62,Female,Self_Employed,Savings,64702.66,Cash_Withdrawal,Net_Banking,Branch,394.6,14,Senior,0
70,Male,Business,Current,85239.82,Transfer,UPI,Mobile,1062.1,17,Elderly,0
59,Male,Business,Savings,176675.16,Transfer,Net_Banking,Branch,406.69,20,Senior,0
56,Female,Salaried,Savings,7635.29,Cash_Withdrawal,Card,ATM,1056.68,21,Senior,0
31,Female,Salaried,Current,8984.73,Payment,Net_Banking,Mobile,1561.03,7,Adult,0
48,Female,Salaried,Savings,46823.37,Transfer,Card,Mobile,2100.7,19,Middle_Aged,0
22,Male,Self_Employed,Savings,69296.11,Cash_Withdrawal,Card,Web,1712.09,6,Young,0
52,Female,Self_Employed,Savings,51388.11,Payment,Cash,Web,813.86,22,Senior,0
40,Female,Salaried,Current,63816.92,Transfer,Net_Banking,ATM,1709.76,19,Middle_Aged,0
46,Female,Salaried,Current,80939.88,Deposit,UPI,Mobile,1255.28,16,Middle_Aged,0
60,Female,Salaried,Savings,31628.07,Cash_Withdrawal,Card,Mobile,1244.91,18,Senior,0
28,Female,Business,Current,22696.37,Cash_Withdrawal,UPI,Mobile,392.89,1,Adult,1
35,Male,Salaried,Current,9004.31,Transfer,UPI,Mobile,314.73,11,Adult,0
64,Male,Self_Employed,Savings,21194.9,Cash_Withdrawal,Net_Banking,Mobile,1419.35,18,Senior,0
29,Male,Retired,Savings,23958.76,Transfer,UPI,Mobile,1783.51,4,Adult,1
26,Female,Salaried,Savings,12584.89,Cash_Withdrawal,Net_Banking,Mobile,589.3,11,Adult,0
27,Female,Salaried,Savings,26092.96,Transfer,Card,ATM,3548.35,16,Adult,0
61,Female,Salaried,Savings,11499.94,Payment,Wallet,Mobile,10030.75,4,Senior,0
34,Male,Salaried,Current,65556.38,Transfer,UPI,ATM,6332.91,1,Adult,0
55,Female,Salaried,Savings,37822.51,Payment,UPI,Mobile,839.96,3,Senior,1
24,Female,Student,Savings,18626.06,Payment,UPI,Web,711.23,5,Young,0
63,Female,Self_Employed,Savings,31290.58,Transfer,Net_Banking,ATM,2408.67,8,Senior,0
30,Male,Salaried,Savings,11113.64,Deposit,Card,ATM,2162.16,21,Adult,0
57,Female,Salaried,Savings,12052.72,Transfer,UPI,ATM,360.26,9,Senior,0
59,Male,Self_Employed,Savings,16202.43,Payment,Net_Banking,Web,860.74,10,Senior,0
26,Female,Self_Employed,Savings,23073.9,Cash_Withdrawal,Net_Banking,ATM,2125.05,1,Adult,0
67,Male,Salaried,Savings,30120.51,Deposit,Net_Banking,Branch,447.52,23,Elderly,0
44,Male,Salaried,Current,30215.95,Transfer,UPI,Mobile,520.79,20,Middle_Aged,0
19,Male,Salaried,Savings,9367.28,Transfer,Card,Mobile,605.66,8,Young,0
22,Female,Self_Employed,Savings,25220.61,Payment,Cash,ATM,735.64,19,Young,0
46,Female,Business,Savings,13982.41,Deposit,Card,Mobile,228.32,16,Middle_Aged,0
54,Male,Business,Savings,1759.57,Cash_Withdrawal,UPI,Mobile,2192.77,8,Senior,0
55,Male,Salaried,Savings,315044.26,Payment,UPI,Mobile,526.3,7,Senior,0
36,Female,Self_Employed,Savings,14201.17,Cash_Withdrawal,Wallet,Mobile,1342.62,4,Middle_Aged,0
25,Female,Student,Current,14845.89,Cash_Withdrawal,UPI,Mobile,1206.03,4,Young,1
65,Male,Salaried,Savings,9162.29,Transfer,Cash,Mobile,398.73,5,Senior,0
62,Female,Salaried,Savings,11544.98,Payment,Card,Mobile,187.51,15,Senior,0
18,Female,Student,Current,23134.08,Payment,Cash,Mobile,1198.87,0,Young,0
39,Female,Salaried,Current,79336.27,Payment,Cash,Web,709.28,8,Middle_Aged,0
69,Female,Self_Employed,Savings,23029.26,Cash_Withdrawal,Card,Mobile,1729.33,20,Elderly,0
34,Male,Retired,Current,20767.62,Deposit,Card,Mobile,2470.61,6,Adult,0
24,Female,Salaried,Savings,70278.36,Deposit,Net_Banking,Mobile,142.77,10,Young,0
42,Female,Salaried,Savings,17685.19,Payment,UPI,ATM,870.38,14,Middle_Aged,0
62,Male,Salaried,Current,27362.25,Transfer,Net_Banking,Mobile,3108.05,23,Senior,0
21,Male,Salaried,Savings,12871.15,Cash_Withdrawal,Cash,Mobile,4615.95,4,Young,0
53,Female,Student,Savings,103580.75,Payment,Card,ATM,175.51,18,Senior,0
23,Female,Self_Employed,Savings,62243.43,Transfer,Card,Branch,3470.21,5,Young,0
48,Female,Salaried,Savings,23804.03,Transfer,UPI,Mobile,399.61,22,Middle_Aged,0
36,Female,Salaried,Savings,19544.43,Payment,Cash,Mobile,2221.5,13,Middle_Aged,0
61,Male,Student,Savings,26226.57,Deposit,UPI,Web,633.39,19,Senior,0
71,Male,Self_Employed,Current,24083.78,Deposit,Wallet,ATM,2313.9,13,Elderly,0
56,Male,Business,Current,7805.19,Deposit,Wallet,Branch,763.75,10,Senior,0
44,Female,Retired,Current,63967.73,Deposit,UPI,Mobile,260.22,3,Middle_Aged,1
27,Female,Self_Employed,Savings,22433.03,Cash_Withdrawal,UPI,Mobile,613.12,9,Adult,0
43,Female,Salaried,Savings,122844.22,Payment,Card,Web,1882.18,1,Middle_Aged,0
36,Female,Salaried,Current,37701.4,Cash_Withdrawal,Wallet,Branch,718.81,3,Middle_Aged,0
56,Male,Business,Current,3580.05,Payment,Card,Web,374.95,19,Senior,0
20,Male,Salaried,Savings,9649.88,Cash_Withdrawal,Card,Mobile,307.54,9,Young,0
62,Female,Salaried,Savings,4832.68,Deposit,Cash,Mobile,488.16,0,Senior,0
30,Male,Student,Savings,9554.44,Deposit,UPI,Mobile,483.95,13,Adult,0
67,Female,Student,Savings,7281.69,Payment,Card,Web,1947.31,17,Elderly,0
45,Female,Salaried,Savings,32927.19,Transfer,UPI,ATM,738.56,11,Middle_Aged,0
37,Male,Salaried,Current,20892.21,Payment,Cash,Mobile,813.47,18,Middle_Aged,0
45,Female,Self_Employed,Savings,48651.21,Payment,UPI,Web,916.14,22,Middle_Aged,0
25,Female,Salaried,Savings,26095.56,Payment,Card,Branch,1882.02,11,Young,0
58,Male,Salaried,Savings,22197.9,Payment,Net_Banking,Mobile,2073.86,4,Senior,0
56,Female,Salaried,Savings,133594.66,Cash_Withdrawal,Card,Web,647.49,3,Senior,0
18,Female,Student,Savings,32152.91,Payment,Cash,ATM,842.21,12,Young,0
20,Male,Salaried,Savings,25225.0,Payment,UPI,ATM,2084.91,17,Young,0
30,Female,Salaried,Savings,13592.14,Payment,Card,Mobile,546.85,11,Adult,0
45,Male,Salaried,Savings,10501.46,Cash_Withdrawal,UPI,Mobile,634.32,15,Middle_Aged,0
74,Female,Salaried,Savings,49831.41,Transfer,Card,Web,2080.58,22,Elderly,0
66,Male,Salaried,Savings,47503.41,Cash_Withdrawal,UPI,Web,617.72,5,Elderly,0
42,Male,Student,Savings,94585.83,Deposit,UPI,Mobile,1404.69,6,Middle_Aged,0
73,Male,Student,Current,39463.41,Payment,UPI,Web,225.96,23,Elderly,0
50,Female,Salaried,Savings,19643.81,Payment,UPI,ATM,1966.0,8,Middle_Aged,0
55,Male,Student,Current,40489.92,Transfer,Card,Mobile,897.08,9,Senior,0
70,Male,Business,Savings,25229.26,Payment,Card,ATM,1647.18,4,Elderly,0
23,Male,Salaried,Current,53761.24,Cash_Withdrawal,UPI,Web,3358.97,20,Young,0
61,Male,Salaried,Current,78234.46,Cash_Withdrawal,Cash,Mobile,785.48,3,Senior,0
62,Male,Salaried,Savings,23509.38,Transfer,Card,Mobile,236.6,10,Senior,0
49,Female,Business,Savings,109737.64,Transfer,Card,Mobile,763.66,18,Middle_Aged,0
62,Female,Self_Employed,Savings,69611.0,Payment,Net_Banking,Mobile,3694.38,6,Senior,0
64,Female,Self_Employed,Current,27286.5,Deposit,UPI,Web,1299.64,12,Senior,0
38,Female,Business,Savings,46009.11,Transfer,UPI,Mobile,378.25,12,Middle_Aged,0
33,Female,Salaried,Savings,34351.38,Transfer,Card,ATM,903.47,20,Adult,0
71,Female,Business,Savings,27380.74,Deposit,Net_Banking,Branch,1786.13,22,Elderly,0
38,Female,Salaried,Current,124307.8,Payment,Card,ATM,967.3,17,Middle_Aged,0
28,Male,Salaried,Savings,40704.08,Transfer,Net_Banking,Web,941.36,8,Adult,0
54,Female,Salaried,Savings,13728.45,Transfer,Net_Banking,Mobile,537.17,12,Senior,0
53,Male,Salaried,Savings,11820.9,Payment,Card,Mobile,582.07,12,Senior,0
52,Male,Self_Employed,Savings,12213.81,Deposit,Cash,Web,1369.85,4,Senior,0
36,Female,Salaried,Savings,39799.26,Payment,Card,ATM,1794.48,11,Middle_Aged,0
37,Male,Business,Savings,20471.5,Cash_Withdrawal,Card,Branch,922.13,0,Middle_Aged,0
74,Male,Salaried,Savings,35123.83,Cash_Withdrawal,Card,Mobile,669.18,17,Elderly,0
35,Male,Salaried,Current,56903.78,Payment,Cash,Mobile,2336.39,20,Adult,0
64,Male,Salaried,Savings,136348.7,Payment,Card,Web,717.89,20,Senior,0
58,Female,Salaried,Savings,20852.34,Transfer,UPI,ATM,1464.57,21,Senior,0
66,Female,Self_Employed,Savings,8718.13,Transfer,Net_Banking,Mobile,1868.74,23,Elderly,0
31,Female,Business,Savings,112862.06,Payment,Cash,Branch,309.79,16,Adult,0
32,Female,Salaried,Savings,8386.0,Cash_Withdrawal,Wallet,Web,1261.09,9,Adult,0
48,Female,Self_Employed,Savings,8126.27,Cash_Withdrawal,Card,Mobile,73.89,8,Middle_Aged,0
18,Female,Salaried,Savings,110543.04,Transfer,UPI,Web,989.93,19,Young,0
70,Female,Retired,Savings,63132.14,Cash_Withdrawal,UPI,Branch,1957.65,7,Elderly,0
71,Female,Salaried,Savings,39651.03,Cash_Withdrawal,Net_Banking,ATM,1535.97,14,Elderly,0
71,Female,Salaried,Current,25849.93,Payment,UPI,Mobile,2440.61,12,Elderly,0
20,Female,Salaried,Savings,22217.53,Cash_Withdrawal,Net_Banking,Mobile,1556.9,20,Young,0
33,Male,Salaried,Current,15983.93,Payment,UPI,Branch,637.57,16,Adult,0
40,Female,Student,Savings,21451.83,Transfer,Net_Banking,Web,235.28,8,Middle_Aged,0
74,Male,Business,Savings,25901.8,Transfer,Net_Banking,Web,1228.01,23,Elderly,0
28,Male,Self_Employed,Savings,8959.23,Transfer,Net_Banking,Branch,1770.12,20,Adult,0
29,Male,Self_Employed,Current,13958.13,Transfer,UPI,Mobile,189.13,10,Adult,0
27,Male,Salaried,Savings,4966.47,Cash_Withdrawal,Card,ATM,1642.37,3,Adult,0
49,Female,Salaried,Savings,28633.77,Cash_Withdrawal,UPI,Mobile,1197.2,23,Middle_Aged,0
33,Male,Student,Savings,28637.75,Payment,UPI,Mobile,761.52,6,Adult,0
25,Female,Student,Savings,111615.18,Deposit,UPI,Web,1702.35,19,Young,0
55,Female,Business,Savings,36331.63,Cash_Withdrawal,Cash,Web,832.66,22,Senior,0
29,Male,Salaried,Savings,17243.08,Payment,UPI,Mobile,780.97,21,Adult,0
41,Female,Student,Savings,22918.87,Payment,Net_Banking,Mobile,307.57,2,Middle_Aged,0
45,Male,Student,Current,39713.95,Deposit,UPI,Web,1643.73,9,Middle_Aged,0
70,Male,Retired,Savings,32276.35,Cash_Withdrawal,Card,Mobile,297.06,2,Elderly,0
25,Female,Student,Savings,42728.81,Payment,UPI,Mobile,553.3,0,Young,1
45,Female,Salaried,Savings,36374.96,Payment,Net_Banking,Mobile,1729.85,13,Middle_Aged,0
53,Male,Salaried,Current,21979.92,Cash_Withdrawal,UPI,Mobile,927.52,12,Senior,0
43,Female,Student,Current,17524.68,Cash_Withdrawal,Net_Banking,Branch,6057.66,4,Middle_Aged,0
25,Female,Salaried,Current,16786.84,Payment,Card,Mobile,1983.97,7,Young,0
67,Female,Salaried,Savings,12833.1,Payment,Net_Banking,Web,2324.68,11,Elderly,0
45,Male,Self_Employed,Current,11319.75,Payment,UPI,Mobile,2575.86,5,Middle_Aged,0
45,Male,Salaried,Savings,117098.55,Cash_Withdrawal,Card,ATM,861.51,23,Middle_Aged,0
54,Female,Business,Savings,29725.73,Transfer,Cash,ATM,644.3,22,Senior,0
58,Female,Retired,Savings,23760.0,Transfer,Net_Banking,Mobile,325.76,1,Senior,0
53,Female,Self_Employed,Savings,18093.22,Cash_Withdrawal,Card,ATM,256.32,23,Senior,0
44,Female,Salaried,Current,37915.05,Cash_Withdrawal,Net_Banking,Mobile,3454.32,3,Middle_Aged,0
71,Female,Salaried,Savings,70469.21,Deposit,UPI,Mobile,588.63,4,Elderly,1
34,Male,Business,Savings,47983.46,Transfer,Cash,Web,2680.92,10,Adult,0
26,Female,Business,Current,56233.69,Transfer,UPI,Mobile,251.67,12,Adult,0
50,Male,Salaried,Current,16827.62,Payment,UPI,ATM,913.56,7,Middle_Aged,0
70,Female,Business,Savings,26814.46,Payment,Card,Web,3895.99,20,Elderly,0
37,Male,Student,Savings,17005.59,Payment,Net_Banking,Mobile,1430.93,4,Middle_Aged,0
30,Female,Salaried,Current,29308.27,Payment,Wallet,Branch,1469.25,5,Adult,0
45,Male,Salaried,Savings,74464.13,Deposit,Card,Branch,610.15,14,Middle_Aged,0
65,Female,Salaried,Savings,38235.63,Deposit,Net_Banking,Web,444.66,22,Senior,0
46,Male,Student,Savings,98851.25,Transfer,Card,Web,1048.42,15,Middle_Aged,0
30,Male,Business,Savings,21357.99,Cash_Withdrawal,Cash,ATM,355.79,10,Adult,0
63,Male,Salaried,Current,14107.07,Payment,UPI,ATM,984.9,6,Senior,0
52,Male,Salaried,Savings,40526.15,Cash_Withdrawal,Card,Web,2925.55,5,Senior,0
23,Male,Salaried,Savings,29586.89,Deposit,UPI,Mobile,308.88,11,Young,0
35,Male,Salaried,Savings,34827.47,Transfer,UPI,Mobile,2084.28,3,Adult,1
68,Female,Salaried,Savings,30902.0,Transfer,Card,Web,2968.79,13,Elderly,0
22,Male,Business,Savings,18259.71,Transfer,Net_Banking,Web,845.36,10,Young,0
64,Female,Self_Employed,Savings,31463.67,Transfer,Card,ATM,1133.84,11,Senior,0
42,Female,Self_Employed,Savings,58612.1,Deposit,Net_Banking,Mobile,678.93,1,Middle_Aged,0
19,Female,Business,Savings,63632.92,Cash_Withdrawal,Net_Banking,ATM,804.29,10,Young,0
27,Female,Salaried,Savings,18185.62,Payment,UPI,Web,2485.23,12,Adult,0
73,Female,Student,Savings,32364.09,Deposit,Card,Mobile,2264.25,10,Elderly,0
47,Male,Salaried,Savings,87701.03,Deposit,Cash,Branch,1625.28,8,Middle_Aged,0
67,Male,Student,Savings,18502.99,Transfer,Net_Banking,Web,2014.08,20,Elderly,0
62,Male,Retired,Current,16001.58,Cash_Withdrawal,Wallet,ATM,1339.47,15,Senior,0
22,Female,Salaried,Savings,50793.43,Transfer,Net_Banking,ATM,321.54,4,Young,0
72,Male,Salaried,Savings,44142.02,Transfer,Card,Mobile,3177.97,11,Elderly,0
73,Male,Self_Employed,Savings,13772.36,Payment,Net_Banking,Branch,448.77,2,Elderly,0
50,Male,Retired,Current,8781.75,Payment,UPI,Mobile,992.14,15,Middle_Aged,0
71,Male,Self_Employed,Savings,31864.41,Cash_Withdrawal,UPI,Web,2574.09,18,Elderly,0
18,Male,Student,Current,19247.23,Transfer,Cash,Mobile,270.09,16,Young,0
35,Female,Student,Savings,6993.52,Cash_Withdrawal,Net_Banking,Mobile,2047.83,10,Adult,0
49,Male,Salaried,Current,15525.48,Cash_Withdrawal,Wallet,Branch,332.91,20,Middle_Aged,0
64,Female,Salaried,Current,43568.42,Transfer,UPI,ATM,1987.72,18,Senior,0
66,Female,Student,Savings,23834.07,Deposit,Net_Banking,Web,3650.68,17,Elderly,0
28,Female,Salaried,Savings,94172.48,Payment,Net_Banking,ATM,524.51,8,Adult,0
38,Female,Retired,Savings,5065.51,Payment,Cash,Web,460.54,12,Middle_Aged,0
43,Female,Salaried,Savings,78463.9,Payment,UPI,Web,1183.27,5,Middle_Aged,0
42,Male,Business,Savings,20432.4,Payment,Cash,Branch,446.3,2,Middle_Aged,0
39,Male,Business,Savings,18201.57,Cash_Withdrawal,Card,ATM,124.31,22,Middle_Aged,0
44,Male,Salaried,Savings,7777.93,Deposit,Cash,ATM,1069.23,11,Middle_Aged,0
66,Female,Business,Savings,39029.2,Deposit,Cash,Mobile,1533.21,8,Elderly,0
30,Male,Salaried,Savings,6239.09,Transfer,Net_Banking,Mobile,789.6,8,Adult,0
50,Male,Salaried,Savings,51757.41,Cash_Withdrawal,UPI,Web,1227.93,14,Middle_Aged,0
51,Female,Business,Savings,8016.91,Cash_Withdrawal,Card,Mobile,3130.29,0,Senior,0
58,Female,Student,Current,9094.59,Transfer,Card,ATM,766.73,17,Senior,0
52,Female,Retired,Savings,10373.69,Payment,UPI,Web,874.25,14,Senior,0
18,Female,Salaried,Current,15172.5,Payment,Wallet,Web,1075.2,7,Young,0
38,Male,Business,Savings,57162.92,Transfer,UPI,Branch,801.13,10,Middle_Aged,0
65,Female,Salaried,Savings,89604.89,Transfer,Card,Mobile,801.34,16,Senior,0
72,Female,Salaried,Savings,16480.37,Transfer,Net_Banking,Mobile,6054.81,13,Elderly,0
23,Male,Student,Savings,25919.47,Payment,UPI,ATM,1243.56,18,Young,0
45,Male,Business,Current,39812.41,Cash_Withdrawal,Net_Banking,ATM,815.0,22,Middle_Aged,0
34,Female,Self_Employed,Savings,20672.3,Payment,Card,Mobile,4377.8,23,Adult,0
22,Male,Self_Employed,Savings,38584.51,Transfer,UPI,Branch,3246.7,4,Young,0
48,Female,Salaried,Current,26815.53,Cash_Withdrawal,Net_Banking,ATM,2047.29,1,Middle_Aged,0
22,Female,Self_Employed,Savings,21965.58,Cash_Withdrawal,UPI,Mobile,596.03,14,Young,0
55,Male,Business,Current,8639.91,Cash_Withdrawal,Card,ATM,16854.32,18,Senior,0
20,Male,Business,Current,30310.05,Transfer,UPI,Mobile,229.12,15,Young,0
70,Female,Salaried,Savings,57913.2,Payment,UPI,ATM,184.71,12,Elderly,0
40,Female,Business,Savings,14434.52,Deposit,Net_Banking,Mobile,1608.25,6,Middle_Aged,0
54,Female,Self_Employed,Savings,5571.3,Deposit,Net_Banking,Mobile,767.46,16,Senior,0
70,Male,Salaried,Savings,20834.37,Payment,UPI,ATM,92.1,18,Elderly,0
54,Female,Self_Employed,Savings,90022.64,Cash_Withdrawal,Cash,ATM,952.62,6,Senior,0
27,Female,Business,Current,70937.89,Cash_Withdrawal,Net_Banking,Web,1186.64,11,Adult,0
27,Female,Salaried,Savings,16909.49,Deposit,Net_Banking,Mobile,926.81,12,Adult,0
36,Female,Student,Savings,38731.64,Payment,Card,ATM,1483.59,12,Middle_Aged,0
34,Female,Salaried,Savings,43951.27,Transfer,Net_Banking,Branch,685.55,13,Adult,0
38,Male,Salaried,Savings,88633.97,Transfer,Card,Mobile,954.67,14,Middle_Aged,0
31,Female,Self_Employed,Savings,7781.73,Payment,Cash,Mobile,4056.72,1,Adult,0
26,Female,Salaried,Current,11440.76,Payment,Wallet,Branch,2860.74,5,Adult,0
63,Female,Self_Employed,Savings,5389.43,Cash_Withdrawal,UPI,Mobile,890.14,8,Senior,0
18,Female,Self_Employed,Savings,15635.08,Payment,UPI,Web,1897.38,14,Young,0
68,Male,Salaried,Savings,63135.88,Cash_Withdrawal,UPI,Branch,2627.07,19,Elderly,0
62,Male,Self_Employed,Savings,17192.43,Transfer,UPI,ATM,429.42,15,Senior,0
30,Male,Retired,Savings,9446.97,Cash_Withdrawal,UPI,Branch,1526.02,1,Adult,0
21,Female,Business,Current,32251.15,Payment,Cash,ATM,1282.18,2,Young,0
18,Female,Self_Employed,Savings,32921.96,Deposit,Card,Mobile,2116.74,22,Young,0
66,Male,Retired,Current,11924.62,Payment,Card,Web,426.67,19,Elderly,0
57,Male,Business,Savings,17946.73,Deposit,Card,Branch,1059.77,22,Senior,0
49,Male,Salaried,Savings,30347.25,Transfer,UPI,Web,515.78,20,Middle_Aged,0
51,Female,Self_Employed,Current,48863.66,Deposit,Card,ATM,1528.5,7,Senior,0
45,Female,Business,Savings,16008.93,Payment,Cash,Mobile,480.48,7,Middle_Aged,0
48,Male,Business,Savings,14265.78,Payment,UPI,Mobile,635.68,20,Middle_Aged,0
25,Male,Salaried,Savings,124249.11,Deposit,Wallet,Mobile,1239.72,6,Young,0
56,Male,Self_Employed,Current,21607.14,Payment,Card,Branch,428.27,10,Senior,0
43,Female,Student,Current,32844.76,Deposit,Net_Banking,Mobile,217.94,21,Middle_Aged,0
51,Female,Self_Employed,Savings,45192.75,Transfer,UPI,Mobile,3100.06,12,Senior,1
71,Female,Salaried,Savings,6441.34,Payment,Net_Banking,ATM,576.28,7,Elderly,0
71,Male,Salaried,Current,26507.38,Cash_Withdrawal,Cash,Mobile,270.49,8,Elderly,0
20,Male,Salaried,Savings,7211.46,Payment,Net_Banking,Web,361.9,15,Young,0
67,Female,Student,Current,24230.76,Deposit,Cash,Mobile,992.52,4,Elderly,0
29,Male,Business,Savings,80700.43,Cash_Withdrawal,Wallet,Web,5308.59,22,Adult,0
18,Female,Self_Employed,Current,12103.2,Payment,Cash,ATM,953.65,13,Young,0
71,Male,Self_Employed,Savings,7093.01,Payment,Net_Banking,Mobile,1964.26,0,Elderly,0
61,Male,Salaried,Current,121801.58,Cash_Withdrawal,Net_Banking,Web,746.8,23,Senior,0
22,Male,Salaried,Savings,10746.7,Cash_Withdrawal,Cash,ATM,1320.62,18,Young,0
47,Male,Self_Employed,Savings,8112.3,Payment,Card,Mobile,891.86,16,Middle_Aged,0
47,Female,Self_Employed,Savings,98245.55,Cash_Withdrawal,UPI,Web,1939.31,21,Middle_Aged,0
74,Male,Salaried,Savings,10413.14,Payment,Net_Banking,Mobile,353.34,13,Elderly,0
34,Female,Salaried,Savings,100301.04,Payment,Card,Mobile,1182.28,12,Adult,0
65,Female,Salaried,Savings,33499.06,Deposit,Cash,Web,1278.83,7,Senior,0
64,Female,Self_Employed,Current,75144.31,Deposit,UPI,Branch,1629.31,2,Senior,0
40,Male,Business,Savings,31221.21,Transfer,Card,ATM,285.49,0,Middle_Aged,0
32,Female,Salaried,Savings,63816.17,Deposit,Cash,Web,681.33,18,Adult,0
54,Female,Salaried,Savings,12903.33,Payment,Card,ATM,2000.21,14,Senior,0
38,Female,Self_Employed,Savings,16467.07,Payment,Card,ATM,1374.48,20,Middle_Aged,0
31,Male,Student,Savings,4952.22,Transfer,UPI,Mobile,6209.46,7,Adult,1
19,Male,Salaried,Savings,58537.64,Transfer,UPI,Branch,645.9,8,Young,0
28,Female,Salaried,Current,37633.71,Deposit,Cash,Mobile,150.32,12,Adult,0
68,Male,Salaried,Savings,12017.75,Transfer,UPI,Mobile,687.92,11,Elderly,0
56,Female,Student,Savings,6640.07,Payment,Cash,ATM,76.56,8,Senior,0
55,Female,Self_Employed,Savings,33706.65,Payment,Card,Branch,2213.1,19,Senior,0
51,Male,Self_Employed,Savings,102822.93,Cash_Withdrawal,Wallet,Mobile,1093.15,23,Senior,0
55,Female,Self_Employed,Savings,24091.91,Payment,UPI,Mobile,1633.22,10,Senior,0
67,Male,Self_Employed,Savings,15886.79,Deposit,UPI,Branch,1915.27,4,Elderly,0
51,Male,Salaried,Savings,12712.49,Payment,Card,Web,3102.39,18,Senior,0
35,Female,Self_Employed,Current,73092.35,Payment,Card,ATM,82.19,20,Adult,0
47,Male,Salaried,Savings,14423.32,Transfer,UPI,Mobile,142.31,17,Middle_Aged,0
32,Male,Business,Savings,19991.39,Transfer,Net_Banking,Branch,515.22,10,Adult,0
44,Female,Retired,Savings,61906.96,Transfer,Card,Branch,809.25,10,Middle_Aged,0
68,Female,Salaried,Savings,44800.98,Cash_Withdrawal,UPI,ATM,1338.85,5,Elderly,0
51,Male,Salaried,Savings,20612.9,Payment,UPI,Mobile,1242.41,0,Senior,1
69,Male,Salaried,Current,15379.93,Cash_Withdrawal,Net_Banking,ATM,1307.18,21,Elderly,0
74,Female,Salaried,Savings,86895.6,Transfer,UPI,Mobile,229.74,20,Elderly,0
55,Male,Student,Current,11013.8,Cash_Withdrawal,UPI,Web,495.31,8,Senior,0
50,Male,Self_Employed,Current,22737.52,Payment,UPI,Mobile,794.39,6,Middle_Aged,0
41,Male,Retired,Savings,8065.08,Transfer,Cash,Web,943.22,5,Middle_Aged,0
32,Male,Salaried,Current,69639.95,Payment,Net_Banking,Web,664.85,22,Adult,0
47,Male,Student,Savings,18399.73,Payment,UPI,Web,1414.23,9,Middle_Aged,0
72,Male,Student,Savings,15371.94,Payment,UPI,Branch,350.29,4,Elderly,0
59,Male,Self_Employed,Current,45676.08,Cash_Withdrawal,UPI,Mobile,676.83,0,Senior,1
68,Female,Salaried,Savings,8600.6,Transfer,Cash,Mobile,1813.43,14,Elderly,0
34,Female,Salaried,Savings,44725.77,Transfer,UPI,Web,1345.42,4,Adult,1
22,Female,Salaried,Savings,20162.22,Cash_Withdrawal,Net_Banking,Web,754.93,19,Young,0
46,Female,Salaried,Savings,10257.46,Cash_Withdrawal,UPI,ATM,772.26,5,Middle_Aged,0
21,Female,Salaried,Current,12182.91,Deposit,UPI,Web,681.24,4,Young,0
27,Male,Self_Employed,Savings,15562.82,Cash_Withdrawal,UPI,ATM,784.43,16,Adult,0
73,Male,Business,Savings,18859.37,Deposit,Net_Banking,ATM,662.62,17,Elderly,0
34,Male,Business,Savings,10313.19,Cash_Withdrawal,Cash,ATM,761.73,3,Adult,0
27,Male,Salaried,Savings,34050.94,Transfer,Wallet,Branch,1473.95,23,Adult,0
34,Female,Business,Savings,10099.31,Cash_Withdrawal,UPI,Mobile,1443.53,20,Adult,0
37,Male,Business,Savings,4055.8,Deposit,UPI,ATM,295.03,22,Middle_Aged,0
41,Male,Student,Savings,124953.34,Payment,Card,Branch,6579.82,1,Middle_Aged,0
22,Female,Business,Savings,31518.88,Transfer,Card,Web,637.05,7,Young,0
51,Male,Salaried,Current,134268.03,Deposit,Card,Web,1752.64,4,Senior,0
23,Male,Self_Employed,Savings,11673.45,Transfer,UPI,Mobile,375.53,3,Young,1
70,Female,Salaried,Current,39491.3,Cash_Withdrawal,UPI,ATM,4734.71,21,Elderly,0
19,Male,Retired,Current,55032.93,Cash_Withdrawal,UPI,Mobile,1878.43,13,Young,0
30,Male,Student,Current,23121.61,Cash_Withdrawal,Cash,Web,1607.56,3,Adult,0
60,Male,Self_Employed,Current,8471.31,Payment,Card,Web,917.0,7,Senior,0
60,Male,Business,Savings,21772.76,Payment,Net_Banking,Web,174.15,2,Senior,0
65,Male,Self_Employed,Savings,44405.45,Payment,UPI,Web,5783.83,13,Senior,0
28,Female,Salaried,Savings,43069.76,Payment,Net_Banking,Mobile,2575.22,17,Adult,0
68,Female,Salaried,Savings,26868.16,Payment,Card,Web,795.14,22,Elderly,0
64,Female,Self_Employed,Savings,55151.01,Payment,UPI,Mobile,1769.74,11,Senior,0
74,Female,Salaried,Savings,53107.26,Payment,Wallet,ATM,295.71,14,Elderly,0
40,Female,Salaried,Current,17695.5,Deposit,Card,Mobile,162.95,19,Middle_Aged,0
72,Female,Salaried,Savings,7971.79,Cash_Withdrawal,Cash,Web,1114.82,19,Elderly,0
33,Male,Salaried,Current,31330.49,Transfer,Cash,Branch,493.97,8,Adult,0
48,Female,Salaried,Savings,14804.55,Transfer,Card,Mobile,676.81,1,Middle_Aged,0
28,Female,Salaried,Savings,30181.94,Payment,Cash,ATM,1040.34,0,Adult,0
71,Male,Salaried,Savings,78938.46,Transfer,Net_Banking,ATM,334.53,14,Elderly,0
33,Male,Self_Employed,Current,38177.19,Payment,Card,Branch,1012.13,22,Adult,0
25,Female,Business,Savings,75887.3,Transfer,Cash,Web,363.53,14,Young,0
21,Male,Self_Employed,Current,11977.87,Cash_Withdrawal,Net_Banking,Branch,3018.37,7,Young,0
57,Female,Retired,Current,64213.23,Transfer,UPI,Branch,991.94,2,Senior,0
21,Male,Salaried,Current,102875.86,Transfer,UPI,Mobile,1858.56,1,Young,1
73,Female,Student,Savings,28323.8,Transfer,UPI,ATM,186.31,3,Elderly,0
42,Male,Student,Current,172412.08,Transfer,Cash,Mobile,1977.83,17,Middle_Aged,0
20,Male,Salaried,Current,13548.82,Cash_Withdrawal,Net_Banking,ATM,4901.14,11,Young,0
49,Female,Retired,Savings,16138.01,Transfer,Cash,ATM,1233.5,17,Middle_Aged,0
20,Female,Salaried,Savings,45249.57,Transfer,UPI,Mobile,1848.52,20,Young,0
44,Female,Salaried,Savings,28101.34,Transfer,Card,Web,864.3,9,Middle_Aged,0
46,Female,Salaried,Savings,14848.8,Transfer,Net_Banking,Mobile,1596.05,20,Middle_Aged,0
49,Female,Business,Savings,44147.13,Cash_Withdrawal,UPI,Mobile,5438.09,7,Middle_Aged,0
67,Male,Business,Current,35754.56,Cash_Withdrawal,Net_Banking,Mobile,10365.7,17,Elderly,0
68,Female,Salaried,Savings,16831.02,Deposit,Net_Banking,ATM,1505.95,16,Elderly,0
36,Female,Retired,Savings,31295.87,Transfer,UPI,Web,395.57,18,Middle_Aged,0
38,Male,Salaried,Current,49376.03,Transfer,UPI,Web,2045.31,5,Middle_Aged,0
22,Male,Salaried,Savings,16534.97,Payment,Card,Mobile,318.1,13,Young,0
35,Female,Self_Employed,Current,40684.26,Cash_Withdrawal,Cash,Web,587.33,4,Adult,0
45,Male,Student,Savings,13445.04,Cash_Withdrawal,Net_Banking,Mobile,658.4,7,Middle_Aged,0
59,Male,Self_Employed,Savings,15692.54,Transfer,Cash,ATM,8443.69,7,Senior,0
39,Female,Retired,Savings,65464.93,Transfer,Card,Mobile,4576.59,17,Middle_Aged,0
38,Male,Business,Savings,43958.31,Transfer,UPI,Branch,3720.55,8,Middle_Aged,0
23,Male,Self_Employed,Savings,5946.33,Payment,Net_Banking,ATM,2491.83,13,Young,0
18,Female,Salaried,Current,19942.74,Payment,UPI,Mobile,442.12,13,Young,0
22,Female,Retired,Savings,39805.38,Cash_Withdrawal,Cash,Web,1388.83,19,Young,0
58,Male,Salaried,Current,30064.26,Payment,UPI,Mobile,6890.63,13,Senior,0
29,Male,Business,Savings,44115.36,Cash_Withdrawal,UPI,Mobile,1715.63,16,Adult,0
43,Female,Self_Employed,Savings,29518.88,Transfer,UPI,Branch,3072.19,1,Middle_Aged,0
63,Male,Retired,Savings,24195.5,Transfer,UPI,Mobile,219.24,13,Senior,0
51,Male,Self_Employed,Savings,23611.05,Transfer,Cash,Web,2257.19,21,Senior,0
66,Male,Salaried,Current,64404.8,Deposit,UPI,Web,382.09,20,Elderly,0
31,Female,Retired,Current,46908.38,Deposit,Net_Banking,Web,879.28,11,Adult,0
43,Male,Business,Current,37189.99,Transfer,Card,Branch,4546.13,22,Middle_Aged,0
62,Male,Retired,Savings,28884.68,Cash_Withdrawal,Card,Web,1551.79,15,Senior,0
44,Female,Business,Savings,17343.01,Cash_Withdrawal,Card,Web,2477.53,21,Middle_Aged,0
26,Male,Salaried,Savings,21048.76,Transfer,Card,Branch,911.43,5,Adult,0
43,Male,Salaried,Current,63053.38,Transfer,UPI,Branch,159.81,17,Middle_Aged,0
74,Female,Salaried,Savings,58477.77,Transfer,Wallet,Branch,430.4,6,Elderly,0
64,Female,Self_Employed,Savings,16012.77,Cash_Withdrawal,Card,Web,2165.15,1,Senior,0
74,Female,Salaried,Savings,29142.0,Payment,UPI,ATM,1532.59,12,Elderly,0
39,Female,Business,Savings,40085.66,Cash_Withdrawal,Card,Web,5781.6,22,Middle_Aged,0
64,Male,Salaried,Savings,38045.86,Payment,Card,ATM,1244.64,7,Senior,0
73,Male,Self_Employed,Savings,37812.16,Transfer,UPI,Mobile,449.08,11,Elderly,0
47,Female,Salaried,Current,11051.71,Transfer,Net_Banking,ATM,1068.68,0,Middle_Aged,0
60,Female,Student,Current,10538.73,Payment,UPI,Branch,2974.49,8,Senior,0
65,Male,Salaried,Savings,68607.41,Deposit,Card,Mobile,189.22,7,Senior,0
34,Female,Student,Savings,89968.97,Cash_Withdrawal,Wallet,Web,1549.44,8,Adult,0
43,Male,Salaried,Savings,8223.76,Transfer,UPI,Mobile,310.91,4,Middle_Aged,1
53,Female,Student,Current,26312.3,Deposit,UPI,ATM,1290.41,12,Senior,0
18,Male,Student,Current,51598.13,Transfer,UPI,Mobile,2267.52,13,Young,1
25,Female,Retired,Current,4614.58,Deposit,UPI,Web,1904.31,3,Young,0
66,Female,Self_Employed,Current,11399.56,Payment,UPI,Branch,4189.72,16,Elderly,0
52,Male,Salaried,Savings,24990.28,Transfer,Net_Banking,ATM,1409.13,8,Senior,0
69,Female,Retired,Current,16684.06,Cash_Withdrawal,Net_Banking,Mobile,1832.77,19,Elderly,0
32,Male,Student,Savings,31802.96,Payment,Cash,Web,1898.0,14,Adult,0
64,Male,Business,Savings,87237.16,Deposit,Card,ATM,415.83,19,Senior,0
73,Male,Business,Savings,13599.14,Deposit,Net_Banking,Mobile,965.38,3,Elderly,0
39,Male,Salaried,Savings,28007.24,Transfer,Card,Mobile,93.79,1,Middle_Aged,0
31,Male,Salaried,Savings,20417.82,Transfer,UPI,Web,1598.6,12,Adult,0
43,Female,Salaried,Savings,30004.19,Transfer,Card,Mobile,69.99,3,Middle_Aged,0
45,Female,Salaried,Savings,27028.31,Transfer,UPI,Mobile,2563.42,17,Middle_Aged,1
40,Male,Business,Current,221850.4,Cash_Withdrawal,Net_Banking,Branch,5729.09,23,Middle_Aged,0
31,Female,Salaried,Savings,88580.05,Payment,Cash,Web,1805.74,15,Adult,0
41,Male,Salaried,Savings,7595.05,Payment,Cash,Mobile,2107.12,22,Middle_Aged,0
19,Female,Salaried,Savings,13093.77,Deposit,Cash,Mobile,3658.73,9,Young,0
62,Female,Salaried,Savings,14439.38,Payment,Cash,Mobile,709.93,1,Senior,0
43,Female,Salaried,Savings,10022.42,Transfer,UPI,ATM,307.2,13,Middle_Aged,0
31,Female,Student,Savings,9002.97,Cash_Withdrawal,Card,Mobile,1006.28,1,Adult,0
73,Male,Self_Employed,Savings,23325.6,Cash_Withdrawal,Net_Banking,Mobile,511.36,17,Elderly,0
68,Male,Salaried,Current,14887.09,Cash_Withdrawal,UPI,Mobile,1184.13,0,Elderly,1
24,Female,Salaried,Current,13191.99,Payment,Wallet,Branch,1414.79,12,Young,0
20,Female,Business,Savings,135452.89,Transfer,Card,Branch,679.79,5,Young,0
64,Male,Student,Savings,15729.57,Deposit,UPI,ATM,537.15,21,Senior,0
40,Female,Business,Savings,18872.59,Cash_Withdrawal,Card,Web,127.21,16,Middle_Aged,0
63,Male,Business,Current,48686.9,Transfer,Net_Banking,ATM,926.29,16,Senior,0
60,Male,Salaried,Savings,18821.92,Transfer,Card,Web,708.5,21,Senior,0
64,Male,Student,Current,10587.84,Payment,Cash,ATM,760.57,10,Senior,0
62,Female,Salaried,Current,21887.0,Payment,Card,Branch,2279.33,5,Senior,0
35,Male,Student,Current,134186.61,Transfer,Cash,Branch,7826.54,19,Adult,0
55,Female,Student,Current,18303.48,Transfer,UPI,ATM,767.49,2,Senior,0
52,Male,Salaried,Savings,12972.49,Deposit,UPI,Web,1613.33,13,Senior,0
68,Female,Salaried,Savings,37653.62,Payment,UPI,Web,1413.8,5,Elderly,0
32,Female,Salaried,Current,21062.9,Cash_Withdrawal,UPI,Mobile,3410.62,16,Adult,0
42,Female,Business,Savings,240673.21,Deposit,UPI,Web,440.64,2,Middle_Aged,0
72,Male,Business,Savings,14335.33,Payment,Cash,Web,427.82,16,Elderly,0
54,Male,Salaried,Savings,107687.05,Cash_Withdrawal,Card,Branch,480.69,18,Senior,0
45,Female,Salaried,Savings,68234.91,Deposit,UPI,Web,113.58,17,Middle_Aged,0
27,Female,Self_Employed,Current,19829.46,Transfer,UPI,Mobile,1047.33,4,Adult,1
56,Female,Salaried,Savings,26827.63,Cash_Withdrawal,UPI,Web,382.74,14,Senior,0
74,Male,Self_Employed,Savings,11802.85,Deposit,Card,Branch,1409.76,2,Elderly,0
34,Male,Salaried,Current,17487.59,Transfer,UPI,Mobile,100.24,22,Adult,0
56,Male,Business,Current,19717.14,Transfer,Card,ATM,1035.86,7,Senior,0
39,Male,Salaried,Savings,30524.44,Cash_Withdrawal,Card,Web,848.8,6,Middle_Aged,0
43,Female,Salaried,Savings,8689.37,Payment,Card,Branch,635.9,17,Middle_Aged,0
61,Female,Salaried,Savings,34516.33,Cash_Withdrawal,Cash,ATM,2975.61,9,Senior,0
42,Male,Salaried,Savings,23939.98,Payment,UPI,Mobile,490.48,22,Middle_Aged,0
34,Male,Salaried,Savings,36993.08,Cash_Withdrawal,UPI,ATM,1485.83,9,Adult,0
30,Female,Salaried,Savings,41682.86,Transfer,UPI,Web,582.99,18,Adult,0
37,Male,Self_Employed,Savings,22454.62,Cash_Withdrawal,UPI,Branch,5762.01,22,Middle_Aged,1
42,Male,Self_Employed,Savings,39757.68,Cash_Withdrawal,UPI,Mobile,956.27,0,Middle_Aged,1
21,Male,Salaried,Savings,25090.86,Cash_Withdrawal,Net_Banking,Mobile,2155.56,1,Young,0
27,Male,Salaried,Savings,48765.5,Transfer,UPI,Branch,2017.66,0,Adult,0
20,Male,Salaried,Savings,34644.72,Transfer,Wallet,ATM,3448.27,8,Young,0
58,Male,Business,Current,31095.96,Cash_Withdrawal,UPI,Branch,1269.13,14,Senior,0
62,Female,Salaried,Savings,24786.22,Payment,Net_Banking,Mobile,293.69,17,Senior,0
35,Male,Retired,Savings,75860.6,Deposit,Cash,Mobile,1707.83,17,Adult,0
64,Male,Salaried,Savings,37203.13,Transfer,UPI,Mobile,1446.84,21,Senior,0
53,Female,Salaried,Current,9347.18,Cash_Withdrawal,UPI,Web,52.66,6,Senior,0
64,Female,Business,Savings,18442.99,Transfer,Card,Branch,206.04,13,Senior,0
39,Female,Self_Employed,Savings,22407.08,Payment,Net_Banking,Branch,2221.51,17,Middle_Aged,0
51,Male,Salaried,Savings,26879.02,Transfer,Card,Web,4538.69,19,Senior,0
64,Female,Salaried,Current,30988.33,Deposit,UPI,ATM,1009.59,18,Senior,0
25,Male,Retired,Savings,12640.06,Deposit,Card,Mobile,2463.24,4,Young,0
57,Male,Student,Savings,25478.79,Payment,UPI,Mobile,1223.12,8,Senior,0
66,Male,Self_Employed,Savings,20925.06,Cash_Withdrawal,Net_Banking,Branch,1137.29,17,Elderly,0
61,Female,Salaried,Savings,64074.09,Deposit,Cash,Mobile,950.34,12,Senior,0
36,Female,Self_Employed,Current,12136.07,Cash_Withdrawal,UPI,Branch,1188.83,4,Middle_Aged,0
59,Female,Business,Savings,26531.74,Deposit,UPI,Branch,1617.13,23,Senior,0
58,Female,Salaried,Savings,15548.07,Cash_Withdrawal,UPI,Mobile,733.84,21,Senior,0
54,Female,Self_Employed,Savings,119419.37,Payment,Net_Banking,Branch,3815.01,19,Senior,0
23,Male,Student,Savings,73518.39,Payment,Net_Banking,Branch,403.35,14,Young,0
69,Male,Salaried,Savings,7230.86,Transfer,UPI,Web,6009.79,23,Elderly,0
43,Male,Salaried,Savings,14228.88,Deposit,Card,Web,884.05,18,Middle_Aged,0
51,Male,Salaried,Savings,53999.96,Transfer,Net_Banking,Web,1041.03,19,Senior,0
73,Female,Business,Savings,38786.46,Transfer,UPI,ATM,585.42,10,Elderly,0
62,Female,Student,Savings,37825.75,Transfer,UPI,Web,1651.47,8,Senior,0
23,Male,Student,Current,31340.99,Cash_Withdrawal,UPI,Mobile,752.45,20,Young,0
54,Female,Salaried,Current,57581.69,Payment,UPI,ATM,681.69,21,Senior,0
74,Female,Salaried,Current,50250.78,Transfer,UPI,Branch,2024.28,15,Elderly,0
50,Male,Salaried,Savings,21323.29,Payment,Wallet,Web,3502.31,10,Middle_Aged,0
70,Male,Self_Employed,Current,10307.15,Cash_Withdrawal,Card,Mobile,386.79,1,Elderly,0
39,Female,Self_Employed,Savings,6960.09,Deposit,UPI,Mobile,2503.83,7,Middle_Aged,1
38,Female,Self_Employed,Savings,24762.58,Cash_Withdrawal,Card,Branch,3819.56,22,Middle_Aged,0
23,Male,Salaried,Current,6173.85,Payment,Cash,Branch,187.73,20,Young,0
23,Male,Salaried,Savings,32885.84,Deposit,Card,ATM,470.56,4,Young,0
72,Male,Salaried,Savings,21027.26,Payment,UPI,Branch,3728.76,10,Elderly,0
65,Female,Salaried,Savings,127405.33,Payment,UPI,Mobile,1592.65,10,Senior,0
21,Male,Salaried,Savings,35401.29,Transfer,Cash,Web,6058.94,8,Young,0
47,Male,Student,Savings,26281.48,Transfer,UPI,Web,918.45,10,Middle_Aged,0
28,Female,Salaried,Savings,7383.95,Payment,UPI,Branch,648.05,4,Adult,0
47,Female,Retired,Current,9800.05,Transfer,Card,Branch,4278.52,8,Middle_Aged,0
48,Female,Salaried,Savings,46401.33,Transfer,UPI,Mobile,475.51,0,Middle_Aged,1
41,Female,Salaried,Savings,20942.22,Payment,Wallet,Web,859.14,9,Middle_Aged,0
72,Female,Student,Savings,204495.37,Payment,Cash,Mobile,1918.85,7,Elderly,0
26,Male,Salaried,Savings,25173.8,Deposit,UPI,Mobile,2118.5,18,Adult,0
72,Male,Self_Employed,Current,30795.93,Payment,UPI,Mobile,493.91,15,Elderly,0
20,Female,Salaried,Savings,9381.38,Cash_Withdrawal,Card,Mobile,1423.23,12,Young,0
68,Female,Salaried,Savings,57408.36,Deposit,Card,Mobile,819.83,23,Elderly,0
48,Female,Student,Savings,12828.48,Cash_Withdrawal,Net_Banking,Mobile,203.83,4,Middle_Aged,0
57,Female,Salaried,Savings,40926.36,Cash_Withdrawal,Card,Web,691.54,17,Senior,0
54,Female,Student,Savings,51505.02,Payment,Card,Web,213.94,8,Senior,0
53,Male,Self_Employed,Savings,29032.02,Payment,Wallet,Mobile,567.1,3,Senior,0
41,Male,Self_Employed,Savings,109707.91,Payment,Card,Branch,329.77,13,Middle_Aged,0
48,Male,Self_Employed,Savings,16505.31,Payment,Card,ATM,2377.55,6,Middle_Aged,0
23,Male,Salaried,Savings,102788.85,Cash_Withdrawal,Cash,Mobile,1480.84,11,Young,0
19,Female,Self_Employed,Savings,9732.67,Cash_Withdrawal,Net_Banking,Mobile,5108.3,23,Young,0
37,Male,Salaried,Savings,50981.74,Transfer,Cash,ATM,436.26,6,Middle_Aged,0
45,Female,Salaried,Savings,24006.24,Payment,Cash,Mobile,1240.51,10,Middle_Aged,0
28,Female,Business,Current,15267.69,Cash_Withdrawal,Card,Branch,363.95,21,Adult,0
21,Female,Student,Savings,7122.24,Payment,Card,Mobile,583.13,14,Young,0
32,Male,Salaried,Savings,21839.26,Transfer,UPI,Mobile,735.49,6,Adult,0
23,Female,Business,Savings,20763.42,Payment,Cash,Mobile,7892.34,19,Young,0
71,Male,Salaried,Savings,30894.24,Deposit,UPI,Branch,1577.96,16,Elderly,0
66,Male,Business,Savings,48043.01,Transfer,UPI,Mobile,965.11,4,Elderly,1
47,Female,Salaried,Savings,14090.09,Payment,Net_Banking,Branch,3226.04,7,Middle_Aged,0
73,Female,Self_Employed,Savings,109821.78,Payment,UPI,Mobile,2149.51,9,Elderly,0
55,Female,Retired,Savings,17486.29,Deposit,UPI,Mobile,1036.82,5,Senior,0
68,Male,Self_Employed,Savings,43553.93,Payment,UPI,ATM,2154.24,20,Elderly,0
74,Female,Salaried,Savings,28915.52,Payment,UPI,Web,807.74,1,Elderly,0
19,Male,Salaried,Savings,22949.06,Cash_Withdrawal,Card,Web,21712.42,4,Young,1
32,Female,Salaried,Savings,27779.28,Cash_Withdrawal,UPI,Mobile,3714.55,9,Adult,0
28,Female,Student,Savings,12679.86,Transfer,UPI,ATM,730.26,2,Adult,0
25,Male,Student,Savings,19731.02,Transfer,UPI,Mobile,2343.13,12,Young,1
43,Male,Salaried,Current,9211.39,Payment,UPI,Mobile,1898.63,15,Middle_Aged,0
68,Male,Salaried,Current,17336.75,Cash_Withdrawal,UPI,Mobile,1455.51,14,Elderly,0
62,Male,Retired,Savings,18521.11,Transfer,Card,Branch,1834.97,1,Senior,0
61,Male,Salaried,Savings,52900.98,Transfer,UPI,Web,486.66,2,Senior,1
22,Male,Salaried,Savings,20629.14,Deposit,UPI,Mobile,709.77,19,Young,0
23,Female,Student,Current,18798.54,Transfer,Net_Banking,Branch,5759.99,17,Young,0
43,Female,Self_Employed,Savings,32081.41,Deposit,Net_Banking,Branch,1344.82,19,Middle_Aged,0
71,Male,Self_Employed,Savings,31091.26,Cash_Withdrawal,UPI,Mobile,544.44,19,Elderly,0
21,Female,Self_Employed,Savings,16766.99,Transfer,UPI,Mobile,953.19,14,Young,1
36,Male,Self_Employed,Savings,36878.45,Payment,Card,Branch,642.79,21,Middle_Aged,0
37,Female,Salaried,Savings,23320.36,Deposit,Cash,Web,2691.16,4,Middle_Aged,0
50,Female,Salaried,Savings,16745.24,Deposit,Wallet,Mobile,625.88,22,Middle_Aged,0
37,Male,Salaried,Savings,18099.09,Deposit,Card,Web,1146.12,10,Middle_Aged,0
66,Male,Business,Savings,57496.57,Deposit,Cash,Mobile,565.37,22,Elderly,0
29,Male,Salaried,Current,18539.48,Transfer,Net_Banking,Branch,9975.71,2,Adult,0
64,Female,Salaried,Savings,33153.39,Payment,Card,Mobile,2057.44,8,Senior,0
18,Male,Retired,Savings,9643.89,Cash_Withdrawal,UPI,Web,1977.51,6,Young,0
43,Female,Retired,Savings,65659.92,Payment,Card,ATM,2203.56,22,Middle_Aged,0
31,Male,Self_Employed,Savings,16875.27,Cash_Withdrawal,UPI,Mobile,739.06,1,Adult,1
55,Female,Self_Employed,Savings,37057.71,Payment,UPI,Mobile,5020.42,14,Senior,0
54,Female,Business,Savings,21998.85,Payment,Net_Banking,Mobile,1024.87,11,Senior,0
28,Male,Salaried,Savings,36719.65,Transfer,UPI,Web,6456.26,15,Adult,0
53,Female,Student,Savings,38359.3,Cash_Withdrawal,UPI,Mobile,792.5,15,Senior,0
30,Female,Business,Savings,23963.08,Transfer,Net_Banking,ATM,2242.8,15,Adult,0
60,Male,Business,Savings,6046.46,Transfer,Card,Mobile,1295.72,18,Senior,0
20,Female,Student,Savings,64396.34,Payment,UPI,Web,1433.17,2,Young,0
50,Male,Self_Employed,Savings,24054.51,Transfer,UPI,ATM,206.43,21,Middle_Aged,0
23,Male,Student,Savings,36112.88,Transfer,UPI,ATM,410.26,19,Young,0
67,Male,Salaried,Savings,46787.67,Payment,UPI,Branch,4963.94,3,Elderly,0
73,Male,Business,Savings,18662.3,Payment,Net_Banking,ATM,302.23,0,Elderly,0
27,Female,Salaried,Savings,40688.81,Transfer,UPI,Branch,2675.87,21,Adult,0
22,Female,Student,Savings,14793.13,Payment,Card,Mobile,14764.47,7,Young,0
40,Female,Salaried,Savings,36681.74,Transfer,UPI,Web,1906.47,23,Middle_Aged,0
27,Male,Self_Employed,Savings,27330.6,Payment,Net_Banking,ATM,9198.06,14,Adult,0
61,Female,Salaried,Current,19187.3,Payment,Cash,Web,2191.0,23,Senior,0
19,Female,Business,Savings,27933.83,Payment,Net_Banking,ATM,1426.33,20,Young,0
30,Male,Business,Savings,11566.23,Deposit,Card,Mobile,1595.03,21,Adult,0
57,Male,Student,Savings,34448.89,Transfer,Net_Banking,Mobile,918.39,4,Senior,0
19,Female,Retired,Savings,37431.12,Transfer,Net_Banking,Web,890.6,19,Young,0
37,Male,Student,Savings,35472.47,Deposit,Cash,Branch,648.61,11,Middle_Aged,0
18,Male,Retired,Savings,89476.98,Deposit,UPI,Mobile,1674.38,19,Young,0
54,Male,Salaried,Savings,24934.83,Payment,UPI,Mobile,9900.94,19,Senior,0
26,Male,Retired,Savings,26346.79,Transfer,UPI,Web,4557.24,3,Adult,1
34,Female,Student,Savings,10548.98,Cash_Withdrawal,UPI,Branch,1345.98,21,Adult,0
26,Male,Salaried,Savings,94653.26,Payment,Cash,Web,2026.79,14,Adult,0
28,Male,Salaried,Savings,8115.13,Payment,Card,Branch,1006.87,5,Adult,0
32,Male,Student,Savings,32300.92,Transfer,Card,Mobile,4543.53,4,Adult,0
41,Male,Business,Current,16451.55,Cash_Withdrawal,UPI,ATM,214.37,10,Middle_Aged,0
55,Male,Salaried,Savings,28278.39,Payment,UPI,ATM,7559.75,13,Senior,0
72,Male,Business,Savings,9447.95,Payment,UPI,Web,635.72,10,Elderly,0
52,Male,Student,Savings,54903.41,Deposit,Card,Mobile,746.91,8,Senior,0
47,Male,Salaried,Savings,12529.69,Cash_Withdrawal,Cash,ATM,322.88,23,Middle_Aged,0
48,Female,Self_Employed,Current,68391.41,Transfer,UPI,Mobile,1280.17,9,Middle_Aged,0
66,Male,Salaried,Current,12809.11,Transfer,Cash,Mobile,555.09,5,Elderly,0
22,Female,Business,Savings,58698.53,Cash_Withdrawal,Card,ATM,3510.4,10,Young,0
61,Male,Business,Current,13838.75,Transfer,Net_Banking,ATM,2154.11,8,Senior,0
67,Male,Self_Employed,Savings,16453.81,Transfer,UPI,Branch,548.04,4,Elderly,0
31,Male,Salaried,Savings,26863.48,Payment,Card,Mobile,456.25,9,Adult,0
70,Male,Business,Current,13652.24,Transfer,UPI,Mobile,577.11,19,Elderly,0
73,Female,Retired,Current,13334.36,Transfer,UPI,Web,425.96,13,Elderly,0
28,Male,Business,Savings,13779.36,Payment,Card,Branch,829.19,5,Adult,0
26,Male,Salaried,Current,34720.46,Deposit,Cash,Web,473.09,3,Adult,0
51,Female,Business,Current,26893.52,Deposit,UPI,Mobile,3527.24,23,Senior,0
29,Female,Business,Current,28060.13,Payment,UPI,Branch,666.24,22,Adult,0
52,Male,Business,Current,20749.84,Deposit,Cash,Mobile,1950.23,20,Senior,0
52,Female,Student,Current,41729.35,Payment,Card,Mobile,1966.32,9,Senior,0
18,Female,Salaried,Savings,62320.54,Cash_Withdrawal,Card,Web,171.9,21,Young,0
57,Female,Self_Employed,Current,42637.68,Cash_Withdrawal,Net_Banking,Web,2238.25,10,Senior,0
39,Male,Salaried,Savings,22761.43,Payment,Card,Mobile,198.96,15,Middle_Aged,0
46,Male,Business,Current,10131.17,Transfer,Cash,Branch,476.35,6,Middle_Aged,0
25,Male,Salaried,Savings,5532.17,Payment,Cash,Web,2137.44,17,Young,0
28,Female,Salaried,Savings,25542.73,Deposit,Net_Banking,Branch,1242.45,6,Adult,0
58,Male,Student,Savings,5461.33,Cash_Withdrawal,Cash,Mobile,780.21,23,Senior,0
54,Female,Salaried,Savings,22938.13,Payment,UPI,Mobile,184.38,20,Senior,0
31,Male,Retired,Savings,82627.56,Deposit,UPI,Mobile,2877.39,14,Adult,0
47,Male,Self_Employed,Current,10691.71,Transfer,Wallet,ATM,1692.73,18,Middle_Aged,0
52,Female,Business,Current,9615.33,Cash_Withdrawal,UPI,Mobile,465.7,17,Senior,0
38,Male,Salaried,Savings,44781.37,Transfer,Card,Web,419.25,14,Middle_Aged,0
54,Female,Business,Current,2850.95,Payment,Net_Banking,Web,3062.18,17,Senior,0
22,Female,Business,Current,36513.84,Payment,Card,ATM,1480.9,2,Young,0
36,Male,Salaried,Savings,87099.59,Payment,Card,Mobile,281.38,0,Middle_Aged,0
31,Female,Student,Savings,13386.63,Payment,UPI,ATM,528.27,0,Adult,0
43,Male,Business,Current,11668.03,Transfer,Card,Branch,7764.3,6,Middle_Aged,0
21,Male,Self_Employed,Savings,43131.92,Transfer,UPI,ATM,2987.64,9,Young,0
42,Female,Retired,Current,10544.98,Payment,Wallet,Web,1097.26,11,Middle_Aged,0
62,Male,Student,Current,51464.88,Deposit,Cash,Web,1121.44,7,Senior,0
59,Female,Business,Current,11254.82,Deposit,Cash,Mobile,124.54,21,Senior,0
42,Male,Business,Savings,110715.8,Payment,Card,Mobile,4050.62,22,Middle_Aged,0
35,Male,Salaried,Savings,45699.59,Cash_Withdrawal,UPI,Mobile,698.25,16,Adult,0
57,Male,Salaried,Savings,27734.57,Cash_Withdrawal,UPI,Web,488.5,13,Senior,0
25,Male,Salaried,Savings,105725.77,Transfer,UPI,Web,2321.51,16,Young,0
56,Male,Salaried,Savings,61404.29,Payment,Card,Web,584.08,20,Senior,0
57,Female,Salaried,Savings,36130.53,Transfer,Card,Web,177.16,22,Senior,0
31,Female,Business,Savings,6059.75,Deposit,Card,ATM,1652.11,5,Adult,0
49,Female,Business,Current,15348.99,Payment,Card,ATM,240.94,19,Middle_Aged,0
68,Female,Business,Savings,64108.21,Payment,Wallet,Branch,1034.02,16,Elderly,0
55,Female,Retired,Savings,9508.1,Payment,UPI,Web,1506.6,19,Senior,0
50,Female,Salaried,Savings,14580.22,Cash_Withdrawal,Cash,Web,830.61,7,Middle_Aged,0
40,Male,Salaried,Savings,11876.56,Deposit,UPI,Web,834.33,12,Middle_Aged,1
32,Male,Business,Savings,37119.05,Deposit,Card,Mobile,5171.53,15,Adult,0
50,Female,Salaried,Savings,58156.3,Cash_Withdrawal,UPI,Mobile,5246.41,11,Middle_Aged,0
42,Female,Salaried,Savings,58202.24,Cash_Withdrawal,Card,Web,438.11,16,Middle_Aged,0
34,Male,Salaried,Savings,13598.9,Deposit,UPI,Branch,605.01,17,Adult,0
50,Male,Student,Savings,36714.49,Transfer,UPI,Mobile,639.15,7,Middle_Aged,0
64,Male,Self_Employed,Current,13096.42,Payment,Net_Banking,Mobile,1062.69,17,Senior,0
72,Female,Salaried,Current,22732.73,Payment,UPI,Mobile,1010.31,10,Elderly,0
19,Female,Salaried,Current,40787.64,Cash_Withdrawal,Card,ATM,6106.34,12,Young,0
31,Female,Student,Current,62887.35,Transfer,Card,Mobile,910.93,11,Adult,0
70,Male,Business,Current,4819.77,Cash_Withdrawal,Card,Branch,391.4,14,Elderly,0
57,Male,Salaried,Current,29112.06,Transfer,Cash,Web,609.1,2,Senior,1
57,Female,Business,Savings,82936.84,Transfer,Card,Branch,1593.01,2,Senior,0
68,Female,Salaried,Savings,32395.52,Transfer,UPI,Web,848.0,5,Elderly,0
56,Male,Salaried,Savings,28741.31,Payment,UPI,Mobile,1500.58,2,Senior,1
68,Male,Salaried,Savings,17147.27,Payment,Net_Banking,Branch,859.05,8,Elderly,0
23,Male,Salaried,Savings,81194.47,Transfer,Card,Mobile,2263.79,10,Young,0
23,Male,Salaried,Savings,17793.22,Payment,Net_Banking,Branch,1003.99,7,Young,0
20,Female,Salaried,Current,24831.8,Transfer,Card,Web,324.93,3,Young,1
24,Male,Self_Employed,Current,18468.64,Payment,Cash,Mobile,775.22,21,Young,0
68,Male,Student,Savings,29335.58,Transfer,Net_Banking,Mobile,10010.66,23,Elderly,0
25,Male,Business,Savings,84163.92,Transfer,Cash,Mobile,3775.26,19,Young,0
59,Female,Salaried,Current,13031.37,Payment,Card,ATM,343.21,14,Senior,0
69,Female,Salaried,Savings,29438.03,Cash_Withdrawal,Card,Mobile,6492.43,4,Elderly,0
32,Male,Salaried,Current,36785.23,Payment,Card,Branch,1257.78,6,Adult,0
64,Male,Self_Employed,Savings,14046.58,Payment,Card,Web,672.91,7,Senior,0
46,Male,Salaried,Savings,25662.53,Payment,UPI,Mobile,827.51,6,Middle_Aged,0
50,Female,Student,Savings,118311.01,Cash_Withdrawal,Cash,Mobile,1160.75,7,Middle_Aged,0
69,Female,Salaried,Current,6536.84,Deposit,UPI,Web,3242.38,3,Elderly,0
47,Female,Student,Savings,19207.18,Payment,UPI,Mobile,1326.14,0,Middle_Aged,1
56,Male,Salaried,Savings,32874.34,Payment,Cash,Mobile,1530.58,21,Senior,0
44,Female,Business,Savings,19915.34,Deposit,UPI,Web,3682.44,4,Middle_Aged,0
53,Male,Student,Savings,270762.67,Payment,Net_Banking,Mobile,735.76,10,Senior,0
46,Male,Student,Current,41729.04,Payment,Net_Banking,ATM,1483.9,3,Middle_Aged,0
55,Male,Business,Current,11666.83,Cash_Withdrawal,Net_Banking,Mobile,1700.84,1,Senior,0
74,Female,Salaried,Savings,4148.88,Payment,Cash,Mobile,1254.8,16,Elderly,0
50,Male,Salaried,Savings,35320.57,Deposit,Card,Mobile,1806.24,11,Middle_Aged,0
54,Female,Salaried,Savings,14698.56,Transfer,Card,Mobile,549.38,1,Senior,0
44,Female,Business,Savings,75441.95,Transfer,Card,Mobile,2921.93,8,Middle_Aged,0
72,Male,Salaried,Current,21592.63,Transfer,UPI,Branch,630.27,5,Elderly,0
50,Male,Salaried,Savings,17074.11,Payment,UPI,Web,1727.89,5,Middle_Aged,0
21,Female,Salaried,Savings,16844.88,Transfer,Cash,Web,1353.42,17,Young,0
39,Male,Business,Savings,59231.42,Payment,UPI,Mobile,551.91,21,Middle_Aged,0
19,Female,Salaried,Current,37513.89,Payment,UPI,ATM,5555.04,2,Young,0
27,Male,Business,Current,109618.93,Payment,Cash,Mobile,6103.17,14,Adult,0
22,Female,Self_Employed,Current,22649.98,Transfer,UPI,Web,436.66,6,Young,0
27,Female,Business,Savings,53627.84,Cash_Withdrawal,UPI,Mobile,2438.88,12,Adult,0
50,Female,Salaried,Savings,54366.36,Transfer,UPI,Mobile,970.16,9,Middle_Aged,0
71,Female,Salaried,Current,46122.25,Payment,Cash,Mobile,559.01,3,Elderly,0
55,Male,Salaried,Savings,17892.09,Cash_Withdrawal,Cash,Branch,1585.27,15,Senior,0
30,Male,Salaried,Savings,39290.04,Payment,Cash,Branch,2524.48,8,Adult,0
48,Female,Salaried,Savings,24889.62,Payment,UPI,ATM,1288.31,20,Middle_Aged,0
64,Female,Self_Employed,Current,24371.92,Payment,Cash,Web,762.42,9,Senior,0
53,Male,Salaried,Savings,14120.06,Transfer,Card,ATM,4144.03,18,Senior,0
62,Male,Salaried,Savings,4933.13,Transfer,Card,Mobile,4295.82,16,Senior,0
41,Male,Business,Savings,73035.51,Payment,Card,ATM,553.97,0,Middle_Aged,0
69,Male,Business,Savings,37996.4,Transfer,Card,ATM,1200.97,12,Elderly,0
73,Male,Student,Savings,9186.05,Payment,Card,ATM,226.11,3,Elderly,0
32,Male,Self_Employed,Current,47770.73,Payment,Cash,Branch,2528.4,14,Adult,0
46,Female,Salaried,Current,74199.18,Payment,UPI,Web,4136.06,9,Middle_Aged,0
25,Male,Business,Savings,50117.92,Payment,Card,ATM,1618.97,19,Young,0
22,Male,Self_Employed,Current,13183.08,Cash_Withdrawal,Card,Mobile,389.4,8,Young,0
46,Female,Business,Current,14979.03,Cash_Withdrawal,Card,Mobile,5515.38,7,Middle_Aged,0
64,Male,Business,Savings,17356.1,Payment,Card,Mobile,8353.34,19,Senior,0
21,Male,Student,Savings,53576.61,Deposit,Net_Banking,Branch,712.03,5,Young,0
29,Male,Salaried,Current,39464.94,Transfer,Net_Banking,ATM,1712.07,22,Adult,0
62,Male,Business,Savings,250755.41,Transfer,Cash,Web,2481.64,9,Senior,0
19,Male,Salaried,Savings,7239.39,Cash_Withdrawal,Cash,Mobile,2409.99,23,Young,0
44,Female,Self_Employed,Current,25794.62,Cash_Withdrawal,UPI,ATM,1150.78,19,Middle_Aged,0
48,Male,Salaried,Savings,5754.84,Payment,Cash,Mobile,6620.15,16,Middle_Aged,0
68,Female,Salaried,Savings,43361.11,Transfer,Card,Branch,229.23,4,Elderly,0
68,Female,Salaried,Savings,63165.64,Transfer,UPI,Web,232.18,13,Elderly,0
53,Male,Salaried,Savings,85279.12,Payment,UPI,ATM,1079.57,16,Senior,0
53,Female,Salaried,Current,31282.61,Cash_Withdrawal,UPI,Web,6270.2,10,Senior,0
43,Male,Business,Savings,5821.73,Deposit,UPI,Branch,3497.11,3,Middle_Aged,0
60,Female,Business,Savings,25845.23,Payment,UPI,Mobile,246.33,22,Senior,0
44,Female,Self_Employed,Savings,38155.76,Payment,UPI,Mobile,18834.58,22,Middle_Aged,1
22,Male,Self_Employed,Savings,12038.72,Transfer,Cash,ATM,1909.02,16,Young,0
37,Male,Self_Employed,Savings,21764.1,Payment,UPI,Mobile,346.46,1,Middle_Aged,1
28,Male,Student,Savings,9685.26,Payment,Card,Web,1000.12,20,Adult,0
27,Male,Business,Current,16478.91,Cash_Withdrawal,Net_Banking,Mobile,2884.61,21,Adult,0
57,Male,Salaried,Savings,55824.79,Cash_Withdrawal,UPI,ATM,3837.11,0,Senior,0
55,Female,Salaried,Savings,46357.13,Payment,Net_Banking,Mobile,1026.62,17,Senior,0
23,Female,Business,Savings,8811.6,Deposit,Cash,Mobile,1848.56,6,Young,0
25,Female,Salaried,Savings,15306.18,Cash_Withdrawal,UPI,Mobile,967.99,21,Young,0
40,Female,Student,Savings,28160.44,Payment,UPI,Web,1026.75,5,Middle_Aged,0
64,Female,Salaried,Savings,32248.26,Transfer,UPI,ATM,2263.77,5,Senior,0
43,Female,Student,Current,15830.34,Transfer,UPI,Mobile,4631.86,13,Middle_Aged,1
63,Female,Self_Employed,Savings,39386.01,Cash_Withdrawal,UPI,Mobile,351.62,22,Senior,0
60,Male,Student,Savings,26154.44,Transfer,UPI,Branch,868.89,11,Senior,0
29,Male,Salaried,Savings,3424.45,Transfer,UPI,Mobile,600.68,13,Adult,0
43,Female,Salaried,Current,17028.84,Cash_Withdrawal,Card,ATM,400.21,13,Middle_Aged,0
30,Female,Salaried,Savings,16644.24,Deposit,UPI,ATM,380.3,11,Adult,0
57,Male,Self_Employed,Savings,46287.12,Transfer,Net_Banking,Mobile,1124.34,8,Senior,0
35,Male,Student,Savings,46950.42,Payment,UPI,ATM,375.19,8,Adult,0
42,Male,Salaried,Savings,7060.83,Payment,Net_Banking,Web,362.68,1,Middle_Aged,0
50,Male,Business,Savings,38207.13,Deposit,UPI,Web,916.58,17,Middle_Aged,0
64,Female,Retired,Current,25357.48,Payment,Cash,Mobile,411.81,4,Senior,0
57,Male,Business,Savings,29766.52,Payment,UPI,Mobile,1823.65,22,Senior,0
60,Female,Self_Employed,Savings,16464.11,Payment,Card,Web,679.16,11,Senior,0
29,Female,Student,Savings,25604.82,Transfer,UPI,Mobile,332.12,13,Adult,0
61,Female,Salaried,Savings,67525.56,Cash_Withdrawal,Card,ATM,11223.0,12,Senior,0
53,Male,Salaried,Savings,29429.38,Payment,UPI,Mobile,129.96,2,Senior,1
65,Male,Self_Employed,Savings,26005.38,Cash_Withdrawal,Card,Branch,2581.96,14,Senior,0
21,Female,Salaried,Savings,18336.29,Cash_Withdrawal,UPI,Web,1550.14,14,Young,0
22,Female,Salaried,Savings,62430.22,Transfer,Card,ATM,675.37,2,Young,0
73,Female,Salaried,Savings,9656.34,Payment,UPI,Mobile,442.43,19,Elderly,0
54,Male,Student,Savings,14163.51,Deposit,UPI,Web,6175.96,18,Senior,0
25,Female,Salaried,Current,9222.77,Transfer,Card,Mobile,9171.85,14,Young,0
59,Male,Retired,Savings,31588.49,Deposit,Wallet,Web,818.27,18,Senior,0
66,Female,Salaried,Savings,69133.73,Payment,Card,Mobile,707.52,7,Elderly,0
45,Female,Business,Current,20680.85,Transfer,Cash,Branch,3390.55,22,Middle_Aged,0
48,Female,Business,Savings,11435.47,Cash_Withdrawal,Card,Web,857.48,12,Middle_Aged,0
26,Male,Salaried,Current,99623.88,Deposit,Card,ATM,1965.41,22,Adult,0
71,Male,Salaried,Current,38600.73,Transfer,UPI,Mobile,1916.04,9,Elderly,0
68,Female,Salaried,Current,33591.2,Cash_Withdrawal,UPI,ATM,1138.34,1,Elderly,0
46,Male,Salaried,Current,23106.0,Cash_Withdrawal,Net_Banking,Mobile,1293.49,10,Middle_Aged,0
31,Female,Business,Savings,45945.51,Payment,Card,Web,1586.99,21,Adult,0
57,Male,Salaried,Savings,33172.76,Transfer,Cash,Mobile,369.23,18,Senior,0
58,Male,Student,Savings,18306.02,Payment,Card,Web,555.72,8,Senior,0
39,Male,Salaried,Savings,20930.4,Cash_Withdrawal,Card,Mobile,1374.38,8,Middle_Aged,0
28,Female,Self_Employed,Savings,11897.58,Transfer,Card,Web,696.26,5,Adult,0
40,Male,Self_Employed,Current,10768.15,Transfer,Card,Mobile,17629.92,9,Middle_Aged,1
18,Male,Self_Employed,Savings,21219.55,Cash_Withdrawal,UPI,Web,1252.1,21,Young,0
63,Female,Self_Employed,Current,67735.92,Transfer,Card,ATM,192.83,23,Senior,0
54,Female,Salaried,Current,11762.47,Cash_Withdrawal,Card,Mobile,65.76,7,Senior,0
38,Female,Self_Employed,Current,52527.7,Payment,Wallet,Mobile,2492.55,14,Middle_Aged,0
43,Female,Salaried,Current,14197.94,Transfer,Card,Mobile,1263.02,5,Middle_Aged,0
63,Male,Business,Current,6442.79,Transfer,Cash,Mobile,4631.71,6,Senior,0
53,Male,Business,Current,41659.3,Cash_Withdrawal,UPI,Mobile,575.94,19,Senior,0
71,Male,Student,Savings,99013.8,Deposit,UPI,Branch,972.05,16,Elderly,0
40,Male,Self_Employed,Savings,13567.22,Transfer,Net_Banking,ATM,1449.85,3,Middle_Aged,0
74,Male,Self_Employed,Current,7662.57,Transfer,Cash,Web,939.12,7,Elderly,0
18,Female,Salaried,Current,38713.04,Cash_Withdrawal,UPI,Mobile,864.59,12,Young,0
71,Male,Self_Employed,Savings,12854.65,Cash_Withdrawal,Card,Mobile,2265.61,23,Elderly,0
72,Male,Student,Savings,41328.9,Deposit,UPI,Web,476.38,13,Elderly,1
68,Male,Business,Savings,67587.86,Transfer,Cash,Branch,1873.72,17,Elderly,0
57,Female,Salaried,Savings,35048.71,Cash_Withdrawal,UPI,Mobile,6826.1,22,Senior,0
32,Female,Salaried,Current,51421.65,Transfer,Net_Banking,Branch,5739.56,16,Adult,0
38,Male,Self_Employed,Current,51703.96,Deposit,Card,ATM,180.21,17,Middle_Aged,0
64,Female,Self_Employed,Savings,59394.53,Transfer,UPI,Web,671.97,13,Senior,0
26,Female,Self_Employed,Savings,27894.05,Deposit,Net_Banking,Mobile,1466.41,23,Adult,0
70,Female,Salaried,Savings,50174.45,Transfer,Wallet,Mobile,3935.9,10,Elderly,0
26,Female,Self_Employed,Savings,30684.76,Cash_Withdrawal,UPI,Mobile,1352.75,9,Adult,0
27,Female,Student,Savings,36792.75,Cash_Withdrawal,Net_Banking,Mobile,3943.29,12,Adult,0
69,Female,Self_Employed,Savings,309084.21,Transfer,Net_Banking,Mobile,561.5,19,Elderly,0
74,Female,Salaried,Savings,32639.56,Deposit,Cash,Mobile,1525.07,15,Elderly,0
70,Male,Student,Savings,8117.62,Transfer,Wallet,Web,1563.94,13,Elderly,0
43,Male,Business,Savings,22972.76,Payment,Card,Mobile,4077.93,2,Middle_Aged,0
58,Female,Salaried,Savings,20985.34,Payment,Cash,Mobile,2720.46,17,Senior,0
52,Male,Salaried,Savings,21767.32,Deposit,Net_Banking,Mobile,2186.38,5,Senior,0
69,Male,Salaried,Savings,57685.09,Payment,Card,Web,2564.02,19,Elderly,0
42,Female,Student,Savings,66467.81,Transfer,Card,Web,327.14,2,Middle_Aged,1
43,Male,Salaried,Current,24723.06,Deposit,UPI,Mobile,923.84,18,Middle_Aged,0
28,Female,Student,Current,8835.21,Payment,Net_Banking,Mobile,401.45,2,Adult,0
55,Female,Salaried,Current,29122.79,Payment,Cash,Mobile,570.71,11,Senior,0
19,Female,Student,Current,17418.52,Payment,Card,Branch,921.73,7,Young,0
24,Male,Business,Savings,31835.07,Cash_Withdrawal,Card,Web,114.85,4,Young,0
35,Male,Salaried,Savings,24421.78,Cash_Withdrawal,UPI,ATM,955.58,16,Adult,0
44,Male,Retired,Savings,71188.47,Transfer,UPI,Web,501.29,9,Middle_Aged,0
51,Male,Self_Employed,Current,33518.29,Transfer,Card,ATM,381.42,20,Senior,0
44,Female,Salaried,Current,17463.12,Cash_Withdrawal,Card,Mobile,1206.96,16,Middle_Aged,0
34,Female,Self_Employed,Savings,8880.15,Payment,Net_Banking,Branch,743.42,8,Adult,0
60,Male,Self_Employed,Savings,25889.39,Transfer,Card,Branch,1543.03,12,Senior,0
61,Female,Retired,Savings,25963.58,Transfer,Net_Banking,Web,573.17,9,Senior,0
68,Female,Business,Current,21807.98,Transfer,UPI,Mobile,920.02,7,Elderly,0
71,Male,Student,Savings,50024.04,Transfer,Wallet,Mobile,12819.01,6,Elderly,0
41,Female,Business,Savings,8899.74,Cash_Withdrawal,UPI,Branch,2044.89,1,Middle_Aged,0
42,Male,Business,Savings,14617.35,Payment,Cash,Web,470.56,1,Middle_Aged,0
24,Female,Business,Savings,28066.56,Deposit,Card,Mobile,3787.39,3,Young,0
69,Male,Salaried,Current,17195.34,Cash_Withdrawal,Card,Mobile,5158.54,8,Elderly,0
23,Female,Self_Employed,Savings,20224.15,Payment,UPI,Branch,1995.56,13,Young,0
70,Female,Retired,Current,25637.18,Payment,UPI,Branch,501.72,23,Elderly,0
41,Male,Salaried,Savings,46572.8,Payment,Cash,Web,3080.91,10,Middle_Aged,0
50,Male,Student,Current,24823.38,Payment,Card,Web,615.66,20,Middle_Aged,0
66,Male,Salaried,Current,5565.0,Transfer,Wallet,ATM,4233.76,6,Elderly,0
46,Male,Self_Employed,Savings,16610.04,Payment,UPI,Web,861.85,18,Middle_Aged,0
60,Female,Business,Savings,39999.71,Cash_Withdrawal,Wallet,Web,829.22,3,Senior,0
39,Female,Business,Savings,49520.35,Payment,UPI,ATM,1852.07,1,Middle_Aged,0
43,Male,Salaried,Savings,51755.52,Transfer,UPI,Web,4492.95,22,Middle_Aged,0
45,Female,Business,Current,64922.02,Cash_Withdrawal,UPI,Branch,11710.23,21,Middle_Aged,0
67,Male,Salaried,Savings,29576.93,Transfer,Net_Banking,Mobile,1126.66,20,Elderly,0
38,Male,Salaried,Current,33207.53,Transfer,Card,Web,728.02,22,Middle_Aged,0
66,Female,Self_Employed,Savings,11954.62,Payment,UPI,Web,482.67,18,Elderly,0
24,Female,Retired,Savings,4723.66,Cash_Withdrawal,UPI,Mobile,249.17,20,Young,0
34,Male,Retired,Savings,8655.36,Payment,UPI,Web,401.0,17,Adult,0
37,Male,Retired,Savings,15344.77,Cash_Withdrawal,Card,Mobile,1388.03,20,Middle_Aged,0
58,Male,Salaried,Savings,9065.55,Transfer,UPI,Web,3148.41,6,Senior,0
66,Female,Salaried,Current,21282.88,Payment,Cash,Mobile,444.19,10,Elderly,0
37,Female,Business,Savings,18589.08,Transfer,Cash,Web,2409.4,9,Middle_Aged,0
71,Female,Self_Employed,Current,56968.95,Deposit,Net_Banking,Mobile,463.17,10,Elderly,0
39,Female,Salaried,Savings,12390.57,Cash_Withdrawal,Card,ATM,523.04,22,Middle_Aged,0
45,Male,Salaried,Savings,30105.57,Transfer,UPI,Mobile,376.32,8,Middle_Aged,0
57,Male,Salaried,Current,19229.21,Payment,Wallet,Mobile,4154.05,2,Senior,0
66,Male,Business,Current,12024.93,Payment,Card,ATM,5466.56,23,Elderly,0
24,Male,Salaried,Savings,15030.41,Payment,Card,ATM,528.95,4,Young,0
18,Male,Salaried,Current,5213.42,Cash_Withdrawal,Net_Banking,Web,488.27,22,Young,0
49,Male,Student,Savings,48956.01,Deposit,UPI,Branch,2043.81,0,Middle_Aged,0
30,Female,Salaried,Savings,82603.64,Cash_Withdrawal,Card,Branch,6173.56,0,Adult,0
47,Female,Self_Employed,Savings,21720.83,Deposit,UPI,Branch,5507.79,19,Middle_Aged,0
40,Male,Salaried,Current,27536.0,Deposit,UPI,Web,746.16,4,Middle_Aged,0
68,Male,Business,Savings,21233.04,Deposit,UPI,ATM,912.74,18,Elderly,0
73,Female,Business,Savings,13959.66,Transfer,UPI,Web,320.04,5,Elderly,0
36,Female,Self_Employed,Savings,47283.77,Deposit,Card,Web,737.79,2,Middle_Aged,0
49,Female,Salaried,Savings,34726.37,Transfer,Net_Banking,ATM,1207.89,20,Middle_Aged,0
47,Female,Retired,Savings,2618.33,Payment,Card,Web,284.36,12,Middle_Aged,0
46,Male,Business,Savings,11758.26,Transfer,Cash,Mobile,635.88,16,Middle_Aged,0
66,Male,Retired,Savings,5205.92,Payment,Card,Branch,1369.52,2,Elderly,0
62,Male,Self_Employed,Savings,93370.57,Payment,Net_Banking,Web,239.85,22,Senior,0
46,Male,Salaried,Savings,23447.92,Deposit,Net_Banking,Branch,1752.96,2,Middle_Aged,0
47,Male,Student,Savings,32616.1,Cash_Withdrawal,Net_Banking,ATM,3042.38,20,Middle_Aged,0
33,Female,Salaried,Savings,20279.46,Cash_Withdrawal,Net_Banking,ATM,1939.2,22,Adult,0
57,Male,Salaried,Savings,65000.96,Deposit,UPI,Branch,667.28,12,Senior,0
36,Female,Salaried,Current,53560.34,Payment,Card,ATM,3540.41,1,Middle_Aged,0
35,Male,Salaried,Savings,22643.24,Payment,Card,Mobile,4391.59,2,Adult,0
18,Male,Salaried,Savings,106339.75,Payment,Card,Web,1506.87,19,Young,0
31,Male,Student,Savings,31202.53,Cash_Withdrawal,Card,Branch,1272.88,15,Adult,0
68,Male,Salaried,Current,8365.74,Payment,UPI,Mobile,590.1,20,Elderly,0
64,Male,Salaried,Current,29144.31,Deposit,UPI,ATM,730.2,11,Senior,0
67,Female,Student,Savings,40698.74,Payment,Net_Banking,Mobile,3204.06,8,Elderly,0
19,Female,Salaried,Savings,24183.36,Cash_Withdrawal,Cash,Mobile,6970.11,15,Young,0
71,Female,Salaried,Savings,19357.08,Cash_Withdrawal,UPI,Mobile,724.17,3,Elderly,1
45,Male,Salaried,Savings,110358.46,Deposit,UPI,Branch,923.99,19,Middle_Aged,0
66,Male,Self_Employed,Savings,10418.2,Payment,Cash,Web,574.08,17,Elderly,0
67,Female,Salaried,Savings,2948.43,Deposit,Card,Branch,712.79,0,Elderly,0
47,Male,Salaried,Current,98247.32,Cash_Withdrawal,Card,ATM,311.69,6,Middle_Aged,0
55,Male,Salaried,Savings,10088.61,Payment,UPI,Web,1684.4,19,Senior,0
68,Female,Self_Employed,Savings,21390.57,Payment,UPI,Branch,308.55,11,Elderly,0
21,Male,Self_Employed,Savings,19891.63,Cash_Withdrawal,Card,Web,633.81,7,Young,0
18,Female,Self_Employed,Savings,72070.41,Payment,Cash,ATM,1031.61,7,Young,0
25,Male,Business,Savings,84785.95,Deposit,UPI,Branch,294.7,23,Young,0
46,Female,Salaried,Savings,9567.24,Deposit,UPI,Mobile,505.8,21,Middle_Aged,0
72,Male,Salaried,Savings,79660.39,Transfer,Cash,Web,355.9,8,Elderly,0
56,Male,Student,Savings,78490.14,Transfer,Net_Banking,ATM,3293.19,13,Senior,0
20,Female,Retired,Savings,27323.0,Transfer,UPI,Web,4558.16,19,Young,0
49,Male,Business,Savings,56728.62,Transfer,Cash,Branch,498.04,4,Middle_Aged,0
27,Male,Business,Savings,61467.51,Transfer,Wallet,Mobile,17384.16,19,Adult,1
27,Female,Salaried,Savings,21983.73,Payment,Net_Banking,Mobile,430.94,20,Adult,0
36,Male,Self_Employed,Savings,23716.99,Payment,Net_Banking,ATM,718.19,1,Middle_Aged,0
63,Female,Salaried,Savings,43107.94,Transfer,Cash,Mobile,1795.28,20,Senior,0
51,Male,Student,Savings,7311.33,Cash_Withdrawal,UPI,Mobile,1972.96,9,Senior,0
50,Male,Salaried,Savings,20271.16,Transfer,Cash,Web,797.1,23,Middle_Aged,0
40,Male,Business,Savings,10298.08,Payment,Cash,ATM,3275.56,8,Middle_Aged,0
72,Male,Salaried,Savings,84024.4,Transfer,Card,ATM,3636.27,6,Elderly,0
45,Female,Self_Employed,Savings,20081.09,Transfer,Card,Mobile,1088.25,22,Middle_Aged,0
49,Male,Student,Current,33560.3,Deposit,Cash,Mobile,943.78,21,Middle_Aged,0
67,Female,Salaried,Savings,22590.18,Transfer,Wallet,Web,595.53,17,Elderly,0
24,Male,Salaried,Savings,21444.27,Deposit,UPI,Web,387.51,11,Young,0
46,Male,Salaried,Savings,31849.37,Payment,UPI,Branch,492.52,10,Middle_Aged,0
25,Male,Self_Employed,Savings,14995.19,Transfer,Cash,Mobile,1890.38,9,Young,0
18,Male,Self_Employed,Current,22953.23,Deposit,UPI,Mobile,1097.4,12,Young,0
74,Female,Business,Savings,22818.47,Transfer,Card,Mobile,859.02,8,Elderly,0
72,Female,Self_Employed,Current,19176.25,Payment,UPI,ATM,619.54,15,Elderly,0
20,Female,Business,Savings,36785.0,Deposit,Card,Mobile,633.08,20,Young,0
41,Female,Salaried,Savings,18814.88,Transfer,Cash,Web,1048.22,21,Middle_Aged,0
40,Male,Business,Current,97625.3,Transfer,UPI,ATM,968.63,16,Middle_Aged,0
25,Female,Salaried,Savings,44496.74,Payment,UPI,ATM,1095.49,4,Young,0
71,Female,Salaried,Savings,9141.25,Cash_Withdrawal,UPI,Web,703.02,5,Elderly,0
74,Male,Student,Savings,41802.12,Transfer,Card,Web,560.7,9,Elderly,0
64,Male,Business,Savings,15497.22,Payment,Cash,Mobile,1105.91,10,Senior,0
54,Male,Business,Savings,29987.99,Payment,Card,Web,2100.22,1,Senior,0
20,Male,Salaried,Savings,14988.58,Transfer,Card,Branch,659.45,6,Young,0
68,Female,Business,Savings,4649.32,Payment,Card,Mobile,100.75,13,Elderly,0
50,Female,Self_Employed,Current,26439.47,Transfer,UPI,Mobile,279.37,3,Middle_Aged,1
45,Male,Student,Current,8539.58,Transfer,Net_Banking,ATM,3210.72,4,Middle_Aged,0
64,Male,Salaried,Savings,37638.11,Transfer,UPI,Web,2962.35,18,Senior,0
25,Male,Self_Employed,Savings,30940.7,Cash_Withdrawal,Net_Banking,Mobile,2093.85,20,Young,0
51,Female,Salaried,Savings,16595.59,Transfer,Card,Branch,1831.08,19,Senior,0
52,Female,Business,Savings,115893.81,Transfer,Card,Web,3034.22,9,Senior,0
49,Male,Student,Current,9982.31,Payment,Cash,Mobile,778.09,5,Middle_Aged,0
41,Male,Salaried,Savings,16326.26,Payment,Net_Banking,ATM,1260.06,1,Middle_Aged,0
31,Female,Business,Savings,10975.78,Transfer,Net_Banking,Mobile,506.86,2,Adult,0
49,Male,Business,Current,137730.32,Deposit,Card,Mobile,920.27,14,Middle_Aged,0
73,Male,Self_Employed,Current,79363.62,Cash_Withdrawal,UPI,Branch,7304.59,9,Elderly,0
63,Female,Self_Employed,Savings,8623.98,Deposit,Net_Banking,Mobile,479.8,16,Senior,0
60,Male,Self_Employed,Savings,13898.49,Transfer,UPI,Mobile,342.01,6,Senior,0
33,Female,Business,Savings,14280.83,Deposit,Net_Banking,Mobile,903.58,1,Adult,0
21,Male,Student,Current,17316.56,Transfer,Cash,ATM,735.18,6,Young,0
69,Male,Salaried,Savings,11681.66,Transfer,Net_Banking,Mobile,1430.79,14,Elderly,0
54,Female,Student,Savings,16570.83,Payment,Net_Banking,ATM,2423.26,2,Senior,0
71,Female,Self_Employed,Savings,60107.98,Payment,UPI,Web,754.06,4,Elderly,0
38,Male,Salaried,Savings,127711.6,Payment,Cash,Mobile,9016.2,21,Middle_Aged,0
31,Female,Salaried,Savings,7820.33,Deposit,UPI,Mobile,3754.45,7,Adult,0
48,Male,Salaried,Current,11697.31,Transfer,UPI,Web,511.05,3,Middle_Aged,1
72,Male,Self_Employed,Current,31915.52,Cash_Withdrawal,Card,ATM,1013.24,17,Elderly,0
65,Female,Self_Employed,Current,7598.87,Cash_Withdrawal,UPI,Mobile,1860.13,18,Senior,0
35,Male,Salaried,Savings,32582.99,Cash_Withdrawal,Cash,Mobile,478.71,7,Adult,0
24,Male,Self_Employed,Current,41443.33,Cash_Withdrawal,Wallet,Mobile,139.12,22,Young,0
27,Female,Salaried,Current,47123.26,Cash_Withdrawal,Card,Branch,7550.57,5,Adult,0
24,Female,Salaried,Savings,40526.67,Cash_Withdrawal,UPI,ATM,362.49,4,Young,0
50,Male,Self_Employed,Savings,17532.32,Cash_Withdrawal,Net_Banking,Web,2571.96,4,Middle_Aged,0
40,Female,Salaried,Savings,23264.05,Transfer,Net_Banking,Mobile,2209.3,16,Middle_Aged,0
38,Female,Retired,Current,10471.14,Payment,Cash,Mobile,485.0,5,Middle_Aged,0
36,Female,Salaried,Savings,39006.01,Payment,Cash,Web,7784.61,12,Middle_Aged,0
65,Female,Student,Current,97021.53,Cash_Withdrawal,Net_Banking,ATM,1169.8,8,Senior,0
36,Male,Self_Employed,Savings,38939.36,Transfer,UPI,Web,1258.62,23,Middle_Aged,0
53,Male,Student,Savings,15428.93,Payment,Net_Banking,ATM,235.51,11,Senior,0
46,Male,Retired,Savings,59625.19,Cash_Withdrawal,Net_Banking,Mobile,132.69,9,Middle_Aged,0
35,Female,Retired,Savings,178530.97,Payment,Net_Banking,Web,860.42,0,Adult,0
19,Female,Salaried,Savings,32680.04,Transfer,UPI,ATM,4012.87,10,Young,0
18,Female,Salaried,Current,41922.51,Payment,Net_Banking,Web,170.4,5,Young,0
64,Female,Salaried,Savings,46265.92,Payment,Card,ATM,1268.2,2,Senior,0
22,Female,Salaried,Savings,7453.46,Transfer,Card,Web,1189.88,5,Young,0
37,Female,Student,Savings,19362.67,Transfer,Net_Banking,Mobile,3793.44,8,Middle_Aged,0
28,Female,Salaried,Savings,17834.8,Cash_Withdrawal,UPI,Web,3030.49,21,Adult,0
59,Male,Salaried,Savings,52464.57,Cash_Withdrawal,Card,Branch,1261.78,7,Senior,0
19,Male,Salaried,Savings,47795.91,Transfer,Net_Banking,Mobile,998.68,14,Young,0
20,Female,Retired,Current,24426.18,Cash_Withdrawal,Net_Banking,Mobile,533.86,21,Young,0
40,Female,Self_Employed,Savings,16998.79,Cash_Withdrawal,Net_Banking,Branch,348.82,5,Middle_Aged,0
72,Female,Business,Savings,6979.43,Deposit,UPI,ATM,586.16,22,Elderly,0
29,Male,Salaried,Savings,26573.51,Payment,Cash,Web,362.56,10,Adult,0
37,Male,Self_Employed,Savings,12535.82,Cash_Withdrawal,UPI,Branch,987.22,9,Middle_Aged,0
22,Female,Salaried,Current,11352.56,Deposit,Net_Banking,Web,1059.2,10,Young,0
54,Female,Business,Savings,56444.61,Transfer,UPI,ATM,833.24,3,Senior,0
55,Male,Retired,Current,51923.97,Transfer,Cash,ATM,1223.35,12,Senior,0
47,Male,Salaried,Savings,18199.05,Cash_Withdrawal,Card,Mobile,692.85,7,Middle_Aged,0
26,Male,Business,Savings,7667.64,Payment,Wallet,Mobile,2544.43,19,Adult,0
51,Male,Self_Employed,Current,13895.92,Transfer,Card,ATM,1378.45,14,Senior,0
70,Female,Self_Employed,Savings,59551.88,Transfer,Cash,Web,675.85,6,Elderly,0
61,Male,Business,Savings,39111.62,Cash_Withdrawal,Card,Mobile,341.54,0,Senior,0
52,Male,Salaried,Savings,18445.14,Transfer,Cash,Branch,1010.72,8,Senior,0
69,Female,Salaried,Current,28197.89,Payment,Card,Web,3432.86,22,Elderly,0
39,Male,Student,Savings,5116.07,Cash_Withdrawal,UPI,Branch,1977.21,7,Middle_Aged,0
61,Male,Self_Employed,Savings,4815.43,Deposit,Cash,Mobile,2340.62,1,Senior,0
41,Male,Student,Savings,130836.17,Cash_Withdrawal,Net_Banking,Mobile,2262.1,13,Middle_Aged,0
34,Female,Self_Employed,Savings,40344.93,Payment,UPI,Mobile,3698.42,11,Adult,0
27,Male,Student,Current,26938.98,Cash_Withdrawal,UPI,Mobile,2597.0,22,Adult,0
47,Female,Salaried,Savings,19583.35,Payment,Cash,Web,1272.92,16,Middle_Aged,0
73,Female,Salaried,Savings,6571.73,Deposit,Net_Banking,Web,729.91,18,Elderly,0
63,Male,Business,Current,59549.98,Transfer,UPI,ATM,2633.25,5,Senior,0
40,Male,Salaried,Savings,10834.48,Transfer,Net_Banking,Mobile,97.6,20,Middle_Aged,0
49,Male,Salaried,Savings,47256.53,Cash_Withdrawal,Net_Banking,Mobile,3894.78,4,Middle_Aged,0
34,Male,Salaried,Savings,29899.61,Transfer,UPI,Web,2186.4,5,Adult,0
67,Female,Salaried,Savings,25805.02,Deposit,UPI,Branch,5645.42,2,Elderly,0
68,Male,Student,Savings,9491.07,Cash_Withdrawal,Cash,ATM,357.96,15,Elderly,0
34,Male,Self_Employed,Savings,9592.72,Payment,Wallet,Mobile,3505.29,17,Adult,0
31,Male,Salaried,Savings,36751.98,Cash_Withdrawal,Cash,Branch,2129.33,13,Adult,0
26,Female,Student,Savings,28663.32,Transfer,Card,Mobile,597.37,14,Adult,1
57,Male,Self_Employed,Savings,27937.74,Deposit,UPI,Web,956.85,3,Senior,0
19,Male,Retired,Savings,33820.87,Cash_Withdrawal,Card,ATM,892.23,10,Young,0
62,Female,Business,Savings,5713.6,Transfer,Cash,Mobile,761.3,4,Senior,0
42,Female,Salaried,Current,60603.93,Transfer,UPI,Mobile,284.68,8,Middle_Aged,0
56,Male,Self_Employed,Savings,20237.25,Deposit,Card,Web,3548.7,4,Senior,0
26,Male,Retired,Savings,68577.24,Transfer,UPI,Mobile,425.67,6,Adult,0
71,Male,Self_Employed,Savings,5395.61,Deposit,Card,Mobile,383.85,17,Elderly,0
39,Male,Salaried,Current,42413.45,Payment,UPI,Mobile,3637.91,17,Middle_Aged,1
60,Male,Business,Current,42094.12,Deposit,UPI,Mobile,269.7,19,Senior,0
63,Female,Business,Savings,8193.48,Deposit,Net_Banking,Branch,810.27,23,Senior,0
21,Female,Salaried,Savings,16132.56,Payment,UPI,Web,405.75,1,Young,0
43,Male,Salaried,Savings,11526.39,Cash_Withdrawal,Card,ATM,5634.87,22,Middle_Aged,0
46,Male,Self_Employed,Savings,53667.89,Deposit,UPI,Branch,3441.82,12,Middle_Aged,0
62,Female,Business,Savings,34444.71,Deposit,UPI,ATM,482.18,12,Senior,0
51,Male,Salaried,Current,96672.0,Payment,Card,Mobile,404.62,16,Senior,0
40,Male,Business,Savings,31645.88,Payment,UPI,Web,2361.94,21,Middle_Aged,0
54,Male,Student,Savings,48329.4,Payment,UPI,ATM,1691.46,16,Senior,0
28,Male,Salaried,Savings,68707.15,Transfer,Net_Banking,ATM,769.64,5,Adult,0
23,Male,Self_Employed,Savings,41920.97,Transfer,UPI,Mobile,701.66,13,Young,0
35,Female,Salaried,Current,19784.49,Transfer,UPI,Web,867.94,20,Adult,0
38,Male,Salaried,Current,17047.6,Deposit,Net_Banking,Mobile,2702.5,13,Middle_Aged,0
59,Male,Retired,Savings,25240.71,Payment,UPI,Mobile,5274.86,11,Senior,0
53,Male,Salaried,Savings,50882.13,Cash_Withdrawal,Cash,Web,6786.71,4,Senior,0
58,Female,Salaried,Savings,14575.79,Deposit,UPI,Web,526.13,4,Senior,0
55,Female,Retired,Savings,45329.93,Payment,UPI,Web,1162.14,3,Senior,0
51,Female,Business,Savings,34825.52,Payment,Card,Mobile,4202.83,22,Senior,0
34,Female,Business,Savings,9870.99,Cash_Withdrawal,Wallet,ATM,459.18,12,Adult,0
54,Male,Self_Employed,Current,43600.69,Cash_Withdrawal,UPI,ATM,554.42,3,Senior,0
42,Female,Student,Savings,30137.84,Transfer,Card,Web,2432.98,17,Middle_Aged,0
55,Male,Business,Current,17319.37,Transfer,UPI,Web,686.3,15,Senior,0
29,Male,Salaried,Savings,29790.44,Transfer,UPI,Branch,250.78,17,Adult,0
40,Female,Self_Employed,Current,17866.44,Deposit,Net_Banking,ATM,479.66,1,Middle_Aged,0
70,Female,Salaried,Savings,32798.49,Payment,UPI,ATM,2952.18,22,Elderly,0
59,Female,Business,Savings,23520.6,Deposit,Net_Banking,ATM,1406.74,3,Senior,0
39,Female,Salaried,Savings,7911.4,Transfer,UPI,ATM,229.93,19,Middle_Aged,0
38,Female,Salaried,Current,24090.47,Transfer,Net_Banking,Mobile,596.49,16,Middle_Aged,0
44,Male,Self_Employed,Savings,18879.9,Cash_Withdrawal,Card,Branch,6786.73,19,Middle_Aged,0
74,Female,Business,Savings,44733.1,Cash_Withdrawal,Net_Banking,Mobile,1023.02,5,Elderly,0
48,Female,Business,Savings,54383.43,Payment,UPI,Mobile,859.72,17,Middle_Aged,0
23,Female,Salaried,Savings,17904.34,Payment,Net_Banking,Web,1105.67,19,Young,0
44,Male,Salaried,Savings,14306.71,Cash_Withdrawal,Cash,ATM,1346.32,6,Middle_Aged,0
57,Female,Business,Current,7015.5,Payment,Card,Web,741.88,12,Senior,0
51,Male,Self_Employed,Savings,14027.43,Cash_Withdrawal,Net_Banking,Web,4190.35,8,Senior,0
29,Female,Business,Savings,20772.49,Transfer,Cash,ATM,684.74,1,Adult,0
62,Female,Self_Employed,Savings,9215.01,Cash_Withdrawal,Net_Banking,Web,2962.43,7,Senior,0
74,Male,Self_Employed,Savings,54968.15,Payment,Card,Mobile,6784.83,13,Elderly,0
70,Female,Salaried,Savings,33180.9,Cash_Withdrawal,Card,ATM,1599.94,21,Elderly,0
24,Male,Business,Savings,24432.43,Transfer,Net_Banking,Mobile,384.66,23,Young,0
27,Male,Self_Employed,Savings,26546.76,Payment,UPI,Mobile,1323.77,17,Adult,0
62,Male,Business,Savings,34366.45,Cash_Withdrawal,Card,Mobile,624.05,0,Senior,0
34,Female,Self_Employed,Current,44644.03,Transfer,Wallet,Mobile,2692.11,22,Adult,0
43,Female,Business,Savings,51390.37,Cash_Withdrawal,Card,Mobile,1349.17,8,Middle_Aged,0
38,Female,Salaried,Savings,21008.77,Payment,UPI,Mobile,973.55,8,Middle_Aged,0
45,Male,Salaried,Current,24015.44,Deposit,Card,Web,400.07,1,Middle_Aged,0
63,Female,Salaried,Savings,30895.82,Transfer,Net_Banking,Branch,170.56,15,Senior,0
19,Male,Retired,Savings,23243.74,Payment,Wallet,Web,487.1,3,Young,0
71,Female,Business,Savings,54060.22,Deposit,Wallet,Mobile,2102.84,12,Elderly,0
60,Male,Salaried,Current,71815.67,Cash_Withdrawal,Cash,Web,3578.86,16,Senior,0
18,Male,Retired,Savings,35428.03,Transfer,Card,Web,804.24,10,Young,0
68,Male,Business,Savings,13009.65,Payment,UPI,ATM,426.37,22,Elderly,0
70,Female,Salaried,Savings,40405.49,Payment,UPI,Mobile,1325.74,1,Elderly,1
53,Male,Self_Employed,Savings,36569.11,Cash_Withdrawal,UPI,Web,2183.1,3,Senior,1
68,Male,Business,Savings,12165.59,Transfer,UPI,Web,2385.57,11,Elderly,0
43,Male,Salaried,Savings,36536.97,Payment,Net_Banking,Branch,1332.14,1,Middle_Aged,0
46,Male,Salaried,Savings,17407.35,Payment,Net_Banking,Web,8693.04,0,Middle_Aged,0
38,Male,Salaried,Savings,48867.85,Transfer,Card,Branch,3900.59,22,Middle_Aged,0
28,Male,Salaried,Savings,40143.52,Deposit,Wallet,ATM,322.86,5,Adult,0
57,Female,Salaried,Savings,32157.12,Deposit,Wallet,Mobile,252.78,15,Senior,0
28,Female,Salaried,Savings,27745.73,Cash_Withdrawal,Cash,Branch,354.13,1,Adult,0
53,Male,Salaried,Savings,4881.96,Payment,Card,Mobile,3527.56,13,Senior,0
66,Female,Salaried,Current,10184.07,Cash_Withdrawal,UPI,ATM,198.49,19,Elderly,0
56,Female,Student,Savings,24230.3,Transfer,Card,Mobile,1732.91,11,Senior,0
57,Male,Business,Savings,90717.62,Transfer,UPI,Web,925.19,18,Senior,0
52,Male,Self_Employed,Current,42266.28,Deposit,Card,ATM,315.83,2,Senior,0
71,Male,Business,Savings,114833.33,Deposit,Net_Banking,Web,1406.48,18,Elderly,0
51,Female,Salaried,Savings,28749.91,Transfer,UPI,ATM,919.25,10,Senior,0
72,Male,Student,Savings,26247.33,Transfer,UPI,Mobile,2457.59,3,Elderly,1
64,Female,Salaried,Savings,84128.46,Deposit,Card,Branch,215.51,16,Senior,0
41,Male,Salaried,Current,23685.74,Transfer,Cash,ATM,448.74,16,Middle_Aged,0
71,Female,Salaried,Current,12219.94,Payment,UPI,ATM,457.81,6,Elderly,0
39,Male,Salaried,Savings,34662.14,Payment,UPI,Mobile,2125.25,4,Middle_Aged,1
22,Male,Salaried,Savings,66039.69,Transfer,Wallet,Mobile,864.69,18,Young,0
73,Female,Self_Employed,Savings,13894.41,Payment,UPI,Mobile,3571.7,20,Elderly,0
50,Female,Salaried,Savings,43098.13,Transfer,Net_Banking,Mobile,735.98,18,Middle_Aged,0
53,Female,Salaried,Current,24969.51,Transfer,Card,Branch,1367.38,8,Senior,0
64,Female,Self_Employed,Current,38602.79,Payment,Card,Mobile,4837.92,16,Senior,0
37,Female,Salaried,Savings,34572.96,Transfer,UPI,Mobile,186.25,8,Middle_Aged,0
36,Female,Student,Savings,19313.44,Cash_Withdrawal,Net_Banking,Mobile,1128.9,13,Middle_Aged,0
52,Male,Business,Savings,24712.14,Payment,Net_Banking,Mobile,1062.55,4,Senior,0
69,Female,Business,Savings,20280.55,Payment,UPI,ATM,498.78,21,Elderly,0
60,Male,Business,Current,29584.28,Transfer,UPI,Web,930.89,1,Senior,1
34,Male,Salaried,Savings,13672.23,Payment,UPI,Branch,1498.44,23,Adult,0
62,Female,Salaried,Current,16553.16,Deposit,Net_Banking,Mobile,519.96,14,Senior,0
60,Male,Salaried,Savings,19318.76,Deposit,Card,Web,1159.11,15,Senior,0
51,Female,Student,Savings,36804.02,Transfer,UPI,ATM,395.55,18,Senior,0
26,Female,Self_Employed,Savings,8669.56,Deposit,UPI,Web,893.99,0,Adult,0
43,Male,Business,Savings,24693.52,Payment,Card,Mobile,2775.82,22,Middle_Aged,0
19,Male,Salaried,Savings,15266.75,Cash_Withdrawal,Net_Banking,Mobile,2908.79,11,Young,0
70,Female,Business,Current,19358.18,Cash_Withdrawal,Cash,Mobile,3543.14,18,Elderly,0
26,Female,Salaried,Savings,15864.9,Transfer,UPI,ATM,990.65,19,Adult,0
26,Male,Self_Employed,Savings,31434.38,Transfer,UPI,Web,790.98,14,Adult,0
57,Male,Student,Savings,23725.59,Cash_Withdrawal,Card,Mobile,2293.78,4,Senior,0
34,Male,Student,Savings,47538.17,Payment,UPI,Mobile,3522.33,0,Adult,1
18,Male,Salaried,Savings,37100.48,Transfer,Net_Banking,Branch,1192.06,10,Young,0
42,Female,Business,Current,7866.46,Cash_Withdrawal,Card,ATM,4974.92,8,Middle_Aged,0
60,Female,Business,Savings,12481.47,Deposit,UPI,Web,2231.85,6,Senior,0
57,Female,Student,Savings,23423.95,Payment,Card,Mobile,619.55,1,Senior,0
59,Female,Salaried,Savings,25994.8,Transfer,Cash,Mobile,699.26,16,Senior,0
42,Male,Salaried,Savings,13394.18,Cash_Withdrawal,Card,Mobile,1053.13,15,Middle_Aged,0
56,Male,Salaried,Savings,76357.34,Cash_Withdrawal,Net_Banking,Mobile,228.05,15,Senior,0
52,Female,Self_Employed,Savings,53731.26,Transfer,Cash,ATM,630.53,13,Senior,0
20,Female,Student,Savings,7217.09,Deposit,Net_Banking,Web,3431.71,1,Young,0
67,Female,Salaried,Savings,35466.4,Transfer,Cash,Web,4209.64,18,Elderly,0
54,Female,Business,Savings,25935.37,Payment,UPI,Web,1459.77,2,Senior,0
61,Female,Salaried,Savings,72772.98,Deposit,UPI,Branch,1727.39,7,Senior,0
61,Female,Business,Current,7662.49,Payment,Net_Banking,Branch,804.39,20,Senior,0
68,Female,Self_Employed,Savings,139788.22,Payment,Net_Banking,Mobile,578.16,18,Elderly,0
47,Female,Salaried,Savings,13706.75,Payment,Cash,Web,1939.73,15,Middle_Aged,0
55,Female,Self_Employed,Savings,36418.11,Payment,Cash,ATM,706.41,21,Senior,0
51,Male,Salaried,Savings,16562.8,Payment,UPI,Web,5945.17,3,Senior,0
29,Female,Salaried,Current,19911.9,Transfer,Card,Web,1650.1,7,Adult,0
36,Male,Salaried,Current,6963.7,Transfer,Wallet,ATM,1711.75,0,Middle_Aged,0
54,Male,Salaried,Savings,70088.18,Transfer,Net_Banking,Mobile,380.12,3,Senior,0
61,Female,Business,Savings,21682.96,Payment,UPI,Branch,107.92,6,Senior,0
66,Female,Self_Employed,Savings,22895.0,Deposit,UPI,ATM,1711.5,0,Elderly,0
34,Male,Self_Employed,Savings,171096.93,Cash_Withdrawal,Card,Mobile,667.2,23,Adult,0
27,Male,Retired,Savings,57962.65,Cash_Withdrawal,Card,Mobile,2933.56,17,Adult,0
74,Female,Self_Employed,Current,15761.27,Payment,Card,Mobile,440.21,3,Elderly,0
72,Male,Business,Current,16511.22,Payment,Cash,ATM,644.7,19,Elderly,0
66,Female,Salaried,Current,33118.29,Transfer,UPI,Mobile,3359.2,13,Elderly,1
64,Female,Salaried,Current,49840.54,Deposit,Net_Banking,Mobile,1697.3,7,Senior,0
29,Female,Student,Savings,109311.15,Transfer,Cash,Branch,402.9,17,Adult,0
33,Male,Business,Savings,7431.78,Cash_Withdrawal,Net_Banking,Mobile,1134.57,6,Adult,0
41,Male,Salaried,Savings,48127.81,Transfer,Net_Banking,Mobile,7359.37,2,Middle_Aged,0
36,Female,Student,Savings,54728.26,Transfer,Card,Mobile,1266.02,20,Middle_Aged,0
25,Male,Student,Savings,14305.43,Payment,Net_Banking,ATM,945.73,13,Young,0
48,Male,Salaried,Current,20166.78,Transfer,Card,Branch,2684.45,11,Middle_Aged,0
38,Male,Business,Current,7300.77,Transfer,Wallet,Web,1559.74,14,Middle_Aged,0
34,Male,Salaried,Current,18020.86,Payment,UPI,Mobile,4645.56,7,Adult,0
40,Male,Business,Current,32392.28,Transfer,Net_Banking,Mobile,2333.44,4,Middle_Aged,0
54,Male,Salaried,Current,96306.78,Deposit,UPI,Web,2714.99,16,Senior,0
71,Male,Business,Savings,103682.89,Transfer,UPI,Mobile,4877.11,9,Elderly,1
33,Female,Salaried,Current,11808.33,Payment,Card,ATM,813.18,10,Adult,0
23,Male,Student,Savings,86360.64,Transfer,Cash,Mobile,602.59,22,Young,0
25,Male,Business,Savings,5656.29,Transfer,UPI,Branch,285.51,15,Young,0
42,Male,Salaried,Current,16849.16,Payment,Card,ATM,888.16,15,Middle_Aged,0
35,Male,Student,Current,21132.17,Payment,Net_Banking,Mobile,296.31,3,Adult,0
42,Male,Salaried,Savings,32906.7,Transfer,UPI,ATM,1580.48,22,Middle_Aged,0
29,Male,Student,Savings,29296.06,Payment,Card,ATM,593.78,4,Adult,0
32,Male,Salaried,Savings,36046.28,Payment,UPI,Mobile,2870.77,9,Adult,0
43,Male,Salaried,Savings,23240.09,Payment,Card,Mobile,2389.11,13,Middle_Aged,0
58,Female,Business,Current,57969.42,Payment,Cash,Branch,742.78,8,Senior,0
62,Male,Self_Employed,Savings,46792.05,Transfer,Card,Mobile,2911.12,17,Senior,0
43,Male,Salaried,Savings,21340.24,Transfer,Wallet,Mobile,1273.13,19,Middle_Aged,0
64,Male,Retired,Savings,52781.44,Cash_Withdrawal,Card,Mobile,186.56,5,Senior,0
49,Male,Salaried,Savings,140751.09,Transfer,Net_Banking,Web,408.04,10,Middle_Aged,0
27,Female,Business,Savings,15699.64,Payment,Cash,ATM,531.57,20,Adult,0
33,Female,Business,Current,102772.1,Payment,Net_Banking,Mobile,1107.92,16,Adult,0
24,Female,Business,Savings,16868.78,Transfer,UPI,Web,714.04,8,Young,0
34,Female,Salaried,Savings,83138.3,Transfer,UPI,ATM,646.14,2,Adult,0
40,Female,Salaried,Savings,17383.06,Deposit,Card,Branch,1960.53,15,Middle_Aged,0
43,Female,Student,Savings,49638.89,Transfer,Net_Banking,Mobile,2408.88,19,Middle_Aged,0
38,Female,Student,Current,31060.94,Payment,UPI,ATM,590.78,3,Middle_Aged,0
39,Female,Salaried,Savings,6449.73,Transfer,Wallet,Mobile,468.84,23,Middle_Aged,0
24,Female,Salaried,Current,124547.43,Cash_Withdrawal,UPI,ATM,3882.37,21,Young,0
31,Female,Salaried,Savings,13142.92,Transfer,UPI,Web,16748.75,14,Adult,1
32,Female,Salaried,Savings,9743.16,Deposit,UPI,Mobile,427.56,1,Adult,1
70,Female,Business,Savings,16130.21,Payment,Card,ATM,2673.49,19,Elderly,0
24,Female,Self_Employed,Savings,203821.07,Transfer,Net_Banking,Branch,954.3,16,Young,0
26,Female,Retired,Current,9867.77,Payment,UPI,Web,2155.95,18,Adult,0
68,Female,Salaried,Savings,31026.43,Deposit,Card,Mobile,422.86,19,Elderly,0
65,Female,Business,Savings,10954.11,Cash_Withdrawal,UPI,Mobile,313.64,15,Senior,0
25,Male,Self_Employed,Savings,12564.53,Transfer,Cash,ATM,356.83,23,Young,0
67,Female,Salaried,Savings,7483.55,Payment,UPI,Web,623.82,18,Elderly,0
40,Male,Salaried,Current,34618.19,Transfer,Card,Web,867.22,20,Middle_Aged,0
46,Female,Retired,Savings,23647.77,Deposit,Cash,ATM,2821.79,16,Middle_Aged,0
35,Female,Salaried,Savings,10882.45,Cash_Withdrawal,Card,Mobile,476.53,3,Adult,0
48,Male,Salaried,Current,54098.56,Transfer,UPI,Mobile,579.5,17,Middle_Aged,0
47,Female,Salaried,Savings,58863.51,Cash_Withdrawal,UPI,Mobile,8782.52,3,Middle_Aged,1
69,Male,Student,Savings,37263.7,Deposit,Cash,Web,1156.76,20,Elderly,0
56,Male,Self_Employed,Savings,68633.49,Transfer,Net_Banking,ATM,1458.72,2,Senior,0
52,Male,Business,Savings,20349.1,Cash_Withdrawal,Net_Banking,Mobile,2310.7,21,Senior,0
35,Female,Salaried,Savings,34818.35,Cash_Withdrawal,Net_Banking,ATM,649.47,17,Adult,0
59,Female,Salaried,Savings,20412.04,Cash_Withdrawal,Wallet,Mobile,1076.7,20,Senior,0
56,Female,Salaried,Savings,8055.69,Payment,Card,Mobile,794.37,19,Senior,0
34,Male,Business,Current,32061.05,Transfer,UPI,Branch,1009.25,4,Adult,0
31,Male,Salaried,Savings,30544.57,Payment,UPI,Web,2548.46,8,Adult,0
48,Female,Self_Employed,Savings,26261.11,Deposit,Card,ATM,2153.1,21,Middle_Aged,0
41,Female,Student,Savings,36282.84,Payment,Cash,Web,111.91,22,Middle_Aged,0
52,Female,Salaried,Current,83243.22,Cash_Withdrawal,Net_Banking,Web,2974.64,23,Senior,0
61,Female,Business,Savings,22844.46,Transfer,UPI,Mobile,776.09,14,Senior,0
62,Female,Salaried,Savings,12509.77,Payment,Card,ATM,1627.51,8,Senior,0
51,Male,Self_Employed,Savings,22066.13,Payment,Cash,ATM,729.55,13,Senior,0
20,Male,Business,Savings,24113.52,Payment,Card,Mobile,1041.27,20,Young,0
54,Male,Self_Employed,Current,59093.18,Payment,UPI,Web,4085.87,23,Senior,0
60,Female,Student,Savings,29299.64,Cash_Withdrawal,Net_Banking,Mobile,1534.68,1,Senior,0
57,Male,Salaried,Savings,10736.97,Transfer,UPI,Branch,3882.25,17,Senior,0
43,Male,Salaried,Savings,51244.64,Transfer,Net_Banking,Web,1042.14,12,Middle_Aged,0
72,Male,Salaried,Savings,45075.87,Payment,Wallet,Mobile,939.26,20,Elderly,0
40,Male,Business,Current,29309.94,Deposit,Card,Web,1110.07,15,Middle_Aged,0
61,Male,Self_Employed,Savings,57445.8,Payment,Card,ATM,308.13,5,Senior,0
56,Female,Business,Savings,65675.79,Transfer,Cash,ATM,74.37,15,Senior,0
32,Male,Self_Employed,Savings,19891.5,Transfer,Card,Web,502.33,3,Adult,1
73,Female,Business,Savings,13093.5,Deposit,UPI,Mobile,3063.26,23,Elderly,0
66,Female,Salaried,Savings,26648.79,Transfer,Net_Banking,Mobile,4539.34,9,Elderly,0
21,Female,Salaried,Savings,41327.75,Payment,Card,Web,148.06,18,Young,0
46,Female,Business,Savings,24728.61,Transfer,UPI,Branch,3970.62,10,Middle_Aged,0
39,Female,Salaried,Savings,12200.85,Payment,Card,Mobile,606.48,4,Middle_Aged,0
42,Male,Student,Savings,30642.33,Payment,UPI,Mobile,263.38,17,Middle_Aged,0
30,Male,Salaried,Savings,5288.02,Transfer,UPI,Mobile,3162.84,2,Adult,1
35,Female,Self_Employed,Current,20752.69,Payment,Card,Web,661.53,7,Adult,0
50,Female,Student,Current,53153.15,Transfer,Card,Mobile,14995.95,10,Middle_Aged,0
33,Female,Self_Employed,Savings,55511.79,Transfer,Card,Branch,559.34,20,Adult,0
62,Male,Self_Employed,Savings,1328.99,Deposit,Wallet,Web,831.84,18,Senior,0
59,Female,Salaried,Savings,23061.8,Transfer,Net_Banking,Web,413.02,20,Senior,0
61,Male,Student,Current,43452.37,Payment,UPI,Branch,1273.98,2,Senior,0
19,Female,Salaried,Current,10500.04,Payment,UPI,Branch,2433.45,11,Young,0
72,Male,Business,Current,19978.99,Deposit,Cash,ATM,194.36,14,Elderly,0
52,Female,Business,Current,70698.06,Cash_Withdrawal,Cash,ATM,2112.86,22,Senior,0
59,Male,Self_Employed,Savings,18263.67,Transfer,Net_Banking,Web,728.75,23,Senior,0
51,Female,Business,Current,96655.98,Cash_Withdrawal,Cash,Branch,463.63,15,Senior,0
47,Male,Salaried,Savings,14869.26,Payment,UPI,Web,270.09,4,Middle_Aged,0
72,Male,Salaried,Savings,83108.66,Payment,Card,Mobile,2917.91,18,Elderly,0
30,Male,Business,Savings,27635.34,Deposit,Net_Banking,Web,1460.72,5,Adult,0
30,Male,Salaried,Current,13324.21,Payment,Net_Banking,Mobile,612.73,11,Adult,0
35,Male,Salaried,Current,83330.61,Transfer,UPI,Branch,2390.98,18,Adult,0
49,Male,Salaried,Savings,10247.82,Transfer,Card,Mobile,1862.78,8,Middle_Aged,0
49,Male,Student,Savings,14231.63,Cash_Withdrawal,UPI,Branch,2611.94,17,Middle_Aged,0
52,Female,Salaried,Current,39812.47,Transfer,Card,Mobile,5656.72,2,Senior,0
56,Female,Salaried,Savings,28700.04,Payment,UPI,Branch,1363.1,22,Senior,0
63,Female,Salaried,Savings,33495.65,Cash_Withdrawal,Net_Banking,Mobile,7573.24,13,Senior,0
69,Female,Salaried,Savings,20037.19,Transfer,Cash,Web,4571.42,23,Elderly,0
46,Female,Business,Savings,10306.04,Deposit,Net_Banking,Branch,2400.52,20,Middle_Aged,0
66,Male,Self_Employed,Savings,15965.66,Cash_Withdrawal,Wallet,Web,202.1,4,Elderly,0
46,Male,Salaried,Savings,77367.3,Deposit,UPI,Web,1223.89,4,Middle_Aged,0
70,Male,Self_Employed,Current,9231.86,Deposit,Cash,ATM,1402.94,3,Elderly,0
61,Male,Salaried,Savings,100265.2,Payment,Net_Banking,Mobile,1360.45,21,Senior,0
74,Male,Salaried,Current,34637.33,Payment,Card,Branch,982.59,15,Elderly,0
33,Female,Self_Employed,Savings,16689.85,Deposit,Cash,Mobile,2092.36,12,Adult,0
73,Female,Business,Savings,5422.75,Payment,Card,Web,2390.26,7,Elderly,0
61,Female,Self_Employed,Savings,6023.67,Cash_Withdrawal,Cash,Web,205.99,23,Senior,0
64,Female,Salaried,Savings,20237.51,Transfer,Card,Mobile,4250.71,20,Senior,0
74,Male,Student,Current,18367.99,Deposit,Card,Mobile,250.52,15,Elderly,0
27,Male,Self_Employed,Savings,29560.64,Cash_Withdrawal,UPI,Mobile,730.77,1,Adult,1
47,Male,Salaried,Savings,106437.74,Payment,UPI,ATM,451.43,7,Middle_Aged,0
42,Female,Salaried,Savings,41360.24,Cash_Withdrawal,UPI,Branch,532.85,2,Middle_Aged,0
56,Male,Business,Current,24271.28,Payment,UPI,Web,3250.4,22,Senior,0
37,Female,Self_Employed,Savings,71216.19,Transfer,Card,Mobile,1238.45,8,Middle_Aged,0
22,Male,Self_Employed,Savings,30349.13,Cash_Withdrawal,UPI,Mobile,2170.25,10,Young,0
18,Male,Salaried,Savings,96738.54,Payment,UPI,Web,2063.2,20,Young,0
47,Female,Self_Employed,Current,15714.37,Transfer,Net_Banking,Mobile,161.57,23,Middle_Aged,0
66,Male,Student,Savings,10740.4,Deposit,Net_Banking,Mobile,627.82,19,Elderly,0
20,Male,Student,Savings,5430.22,Deposit,Net_Banking,Mobile,2318.26,0,Young,0
62,Female,Business,Savings,24727.49,Cash_Withdrawal,Net_Banking,Branch,2115.06,0,Senior,0
31,Male,Student,Savings,10019.48,Payment,UPI,ATM,189.3,21,Adult,0
73,Female,Salaried,Savings,9906.61,Transfer,UPI,Mobile,3071.82,7,Elderly,1
47,Male,Business,Savings,61540.79,Cash_Withdrawal,UPI,Branch,2030.54,15,Middle_Aged,0
67,Male,Salaried,Savings,6783.98,Payment,Net_Banking,ATM,418.72,9,Elderly,0
21,Male,Salaried,Savings,29226.96,Deposit,Net_Banking,Branch,1650.16,1,Young,0
35,Male,Salaried,Savings,25170.14,Cash_Withdrawal,UPI,Mobile,872.09,15,Adult,0
54,Male,Salaried,Savings,28960.99,Deposit,UPI,ATM,1793.57,3,Senior,0
42,Male,Salaried,Current,81412.33,Transfer,Cash,ATM,181.23,18,Middle_Aged,0
65,Male,Self_Employed,Current,13897.26,Cash_Withdrawal,UPI,ATM,770.77,8,Senior,0
18,Male,Self_Employed,Savings,81467.45,Transfer,Card,ATM,3571.41,2,Young,0
70,Female,Salaried,Current,6580.3,Payment,Net_Banking,ATM,1879.61,10,Elderly,0
63,Female,Self_Employed,Savings,45278.74,Cash_Withdrawal,Card,Mobile,2420.29,7,Senior,0
32,Male,Student,Current,87649.28,Deposit,Net_Banking,ATM,868.23,6,Adult,0
26,Male,Salaried,Savings,1050.23,Transfer,Card,Web,1928.21,0,Adult,1
32,Female,Self_Employed,Savings,26152.12,Transfer,Cash,Web,931.61,7,Adult,0
66,Male,Salaried,Savings,24504.58,Payment,Net_Banking,Branch,434.92,23,Elderly,0
74,Male,Retired,Current,28494.85,Transfer,Card,Mobile,852.22,16,Elderly,0
41,Female,Salaried,Savings,105793.71,Cash_Withdrawal,Cash,Branch,4694.0,10,Middle_Aged,0
21,Male,Self_Employed,Savings,14604.65,Deposit,Cash,ATM,3402.69,6,Young,0
29,Male,Salaried,Savings,10429.5,Cash_Withdrawal,Net_Banking,ATM,406.59,8,Adult,0
54,Female,Salaried,Savings,28661.16,Transfer,UPI,Mobile,722.46,13,Senior,0
54,Male,Salaried,Savings,66134.83,Cash_Withdrawal,UPI,Web,435.18,4,Senior,0
60,Male,Business,Savings,42062.33,Deposit,Card,Branch,1312.28,17,Senior,0
23,Female,Salaried,Savings,27652.12,Transfer,Net_Banking,Web,2972.84,23,Young,0
56,Male,Retired,Current,22395.5,Deposit,Wallet,Mobile,8364.85,22,Senior,0
73,Female,Salaried,Savings,5401.63,Transfer,UPI,Web,263.1,12,Elderly,0
63,Male,Student,Savings,42988.59,Cash_Withdrawal,UPI,ATM,2587.24,4,Senior,0
41,Male,Salaried,Savings,47300.33,Payment,Net_Banking,Mobile,1088.24,7,Middle_Aged,0
28,Female,Business,Savings,15461.88,Deposit,UPI,Mobile,759.65,14,Adult,0
30,Female,Self_Employed,Current,18549.98,Payment,UPI,ATM,430.4,21,Adult,0
51,Male,Salaried,Current,11630.86,Deposit,UPI,ATM,6501.97,3,Senior,0
42,Female,Business,Savings,53879.15,Payment,UPI,Web,215.11,0,Middle_Aged,0
24,Female,Salaried,Current,20076.53,Deposit,Cash,Mobile,671.99,5,Young,0
69,Male,Business,Current,23874.26,Transfer,Card,Mobile,1583.35,23,Elderly,0
21,Male,Self_Employed,Current,44507.42,Deposit,Card,Mobile,1725.53,18,Young,0
25,Male,Salaried,Savings,34946.7,Transfer,Net_Banking,Branch,3815.39,11,Young,0
37,Female,Salaried,Savings,42218.97,Transfer,UPI,Mobile,454.56,6,Middle_Aged,0
46,Female,Retired,Savings,30942.0,Transfer,UPI,ATM,2047.52,12,Middle_Aged,0
71,Female,Self_Employed,Savings,31498.48,Transfer,Net_Banking,Mobile,1029.74,6,Elderly,0
70,Female,Salaried,Savings,31260.49,Cash_Withdrawal,Net_Banking,Web,1141.64,8,Elderly,0
68,Male,Salaried,Current,38651.18,Deposit,UPI,ATM,692.58,0,Elderly,0
62,Female,Salaried,Savings,40183.26,Transfer,UPI,Mobile,1289.32,20,Senior,0
63,Male,Salaried,Savings,10099.42,Cash_Withdrawal,UPI,Mobile,951.09,23,Senior,0
27,Female,Self_Employed,Savings,16684.65,Deposit,Cash,Mobile,767.97,12,Adult,0
60,Male,Business,Savings,22863.87,Deposit,UPI,Mobile,648.59,18,Senior,0
51,Male,Salaried,Savings,38617.26,Deposit,Card,Web,1591.6,20,Senior,0
74,Male,Salaried,Current,96561.82,Transfer,UPI,Branch,289.78,0,Elderly,0
43,Female,Salaried,Savings,14036.57,Transfer,Net_Banking,Branch,904.74,19,Middle_Aged,0
58,Male,Salaried,Current,54334.86,Payment,Card,Web,508.92,20,Senior,0
66,Male,Student,Current,17065.99,Transfer,Card,Mobile,969.8,18,Elderly,0
20,Female,Salaried,Savings,80532.29,Payment,UPI,Web,982.2,17,Young,0
73,Male,Student,Current,124228.16,Transfer,UPI,Web,2609.34,22,Elderly,0
23,Female,Salaried,Savings,6644.79,Payment,Cash,Web,2119.67,4,Young,0
22,Female,Salaried,Savings,20721.63,Payment,Net_Banking,ATM,1468.2,2,Young,0
22,Male,Salaried,Savings,4104.36,Payment,Cash,ATM,1303.4,1,Young,0
71,Male,Student,Savings,6961.37,Deposit,Cash,Branch,906.09,21,Elderly,0
64,Female,Salaried,Current,7317.18,Deposit,UPI,Branch,889.49,9,Senior,0
40,Male,Salaried,Savings,44322.72,Deposit,Cash,Mobile,190.97,5,Middle_Aged,0
66,Female,Salaried,Savings,38161.67,Payment,UPI,Branch,2284.15,18,Elderly,0
26,Female,Student,Savings,51072.2,Payment,UPI,Web,1431.57,16,Adult,0
52,Female,Self_Employed,Savings,43753.78,Payment,Net_Banking,Mobile,3642.31,18,Senior,0
37,Male,Self_Employed,Savings,39658.15,Payment,Net_Banking,Mobile,629.82,12,Middle_Aged,0
66,Female,Business,Current,29421.64,Payment,Cash,Mobile,3867.52,16,Elderly,0
59,Male,Salaried,Savings,24228.76,Transfer,Net_Banking,Mobile,905.22,22,Senior,0
52,Male,Self_Employed,Savings,60820.26,Transfer,Wallet,Branch,618.22,17,Senior,0
67,Male,Business,Savings,27168.74,Transfer,UPI,Mobile,5143.27,10,Elderly,1
35,Male,Student,Savings,40951.48,Transfer,Wallet,Web,1577.97,19,Adult,0
34,Female,Salaried,Savings,4170.42,Cash_Withdrawal,Cash,Web,5831.37,19,Adult,0
41,Male,Self_Employed,Current,10508.55,Transfer,Net_Banking,ATM,1300.48,12,Middle_Aged,0
20,Female,Salaried,Savings,58934.35,Transfer,Cash,ATM,2458.79,23,Young,0
49,Female,Student,Savings,15760.34,Transfer,Card,Web,3067.77,10,Middle_Aged,0
52,Male,Business,Savings,8810.63,Payment,Cash,Mobile,827.68,19,Senior,0
55,Female,Self_Employed,Savings,44937.77,Deposit,UPI,Web,1550.09,18,Senior,0
30,Female,Salaried,Savings,26931.92,Cash_Withdrawal,Net_Banking,ATM,1279.49,9,Adult,0
73,Male,Salaried,Savings,19427.57,Payment,UPI,Mobile,2520.78,2,Elderly,1
64,Female,Salaried,Savings,89975.15,Transfer,UPI,ATM,377.91,20,Senior,0
42,Female,Business,Current,78428.86,Deposit,UPI,Mobile,2000.46,5,Middle_Aged,0
26,Female,Salaried,Savings,23149.54,Transfer,UPI,ATM,2753.05,6,Adult,0
21,Female,Salaried,Savings,47949.34,Transfer,UPI,Branch,553.98,20,Young,0
31,Male,Self_Employed,Savings,4487.44,Payment,UPI,Mobile,454.21,22,Adult,0
54,Female,Salaried,Savings,64517.21,Transfer,Card,Branch,208.87,19,Senior,0
51,Female,Business,Current,11279.37,Cash_Withdrawal,Card,Branch,8764.53,4,Senior,0
28,Female,Salaried,Savings,8419.34,Transfer,UPI,Branch,527.59,21,Adult,0
58,Female,Salaried,Savings,6449.69,Payment,UPI,Mobile,4527.63,8,Senior,0
73,Male,Business,Savings,6062.99,Transfer,Wallet,Web,890.71,21,Elderly,0
20,Female,Salaried,Current,63847.99,Payment,UPI,ATM,3288.57,9,Young,0
45,Male,Salaried,Savings,44574.44,Deposit,UPI,ATM,1960.47,13,Middle_Aged,0
46,Female,Salaried,Savings,14578.63,Payment,UPI,Branch,8974.55,10,Middle_Aged,0
26,Male,Business,Savings,53312.13,Payment,UPI,ATM,4655.56,16,Adult,0
20,Male,Retired,Savings,16714.22,Payment,Cash,Branch,1357.09,10,Young,0
42,Male,Retired,Savings,34853.87,Deposit,Card,Web,1494.93,6,Middle_Aged,0
51,Male,Salaried,Savings,18290.79,Payment,Card,Mobile,2162.72,10,Senior,0
29,Male,Salaried,Current,24441.3,Transfer,UPI,ATM,16015.38,12,Adult,1
59,Female,Salaried,Savings,13009.6,Payment,Cash,Web,1173.49,18,Senior,0
26,Female,Self_Employed,Savings,14649.27,Deposit,Net_Banking,Mobile,301.06,5,Adult,0
32,Female,Salaried,Current,41575.94,Cash_Withdrawal,UPI,Web,1400.68,1,Adult,0
57,Male,Retired,Savings,47279.08,Deposit,UPI,Mobile,577.86,13,Senior,0
42,Female,Salaried,Current,19316.23,Transfer,UPI,ATM,1354.62,15,Middle_Aged,0
22,Male,Retired,Savings,7939.2,Transfer,Cash,Mobile,3467.37,6,Young,0
28,Male,Self_Employed,Savings,194268.72,Transfer,UPI,Mobile,1815.44,0,Adult,1
51,Female,Self_Employed,Savings,27704.7,Transfer,Card,ATM,605.95,1,Senior,0
41,Female,Salaried,Savings,34534.45,Payment,UPI,ATM,895.25,8,Middle_Aged,0
32,Male,Student,Savings,9807.83,Cash_Withdrawal,UPI,Mobile,377.57,22,Adult,0
55,Male,Salaried,Current,71124.48,Deposit,UPI,Web,3927.01,17,Senior,0
25,Female,Salaried,Current,80363.57,Payment,UPI,Web,2491.43,20,Young,0
22,Female,Student,Savings,6860.75,Transfer,UPI,Mobile,369.32,19,Young,0
65,Female,Salaried,Savings,24787.42,Transfer,Card,Web,13643.53,17,Senior,0
43,Female,Salaried,Savings,23287.0,Transfer,Card,Web,882.75,17,Middle_Aged,0
35,Male,Business,Current,181817.27,Transfer,Card,Mobile,1473.7,9,Adult,0
23,Female,Business,Savings,85382.04,Cash_Withdrawal,Cash,Mobile,782.49,7,Young,0
54,Female,Salaried,Savings,8428.53,Transfer,Cash,Mobile,1669.19,20,Senior,0
65,Female,Retired,Savings,15026.31,Payment,Cash,ATM,1204.78,7,Senior,0
30,Male,Salaried,Savings,13168.79,Transfer,Net_Banking,Mobile,271.07,1,Adult,0
45,Male,Salaried,Current,36219.07,Cash_Withdrawal,UPI,Mobile,3545.77,17,Middle_Aged,0
22,Male,Salaried,Savings,94633.53,Payment,UPI,Mobile,479.08,10,Young,0
30,Male,Self_Employed,Savings,29358.55,Transfer,Cash,Branch,2743.83,10,Adult,0
34,Female,Student,Savings,40172.3,Cash_Withdrawal,Card,Mobile,869.69,18,Adult,0
67,Male,Salaried,Savings,15812.45,Payment,Card,Web,1168.32,10,Elderly,0
57,Female,Business,Savings,40000.46,Cash_Withdrawal,UPI,Web,1775.99,9,Senior,0
62,Female,Salaried,Savings,18443.47,Payment,Card,Mobile,1257.99,7,Senior,0
49,Female,Business,Savings,7240.12,Transfer,Net_Banking,Branch,2307.27,14,Middle_Aged,0
46,Female,Self_Employed,Savings,37975.5,Payment,UPI,ATM,540.13,7,Middle_Aged,0
68,Male,Retired,Savings,26691.97,Transfer,Wallet,Branch,3092.96,18,Elderly,0
20,Male,Student,Savings,11184.03,Deposit,Card,ATM,391.3,0,Young,0
73,Male,Salaried,Current,100338.85,Transfer,UPI,Mobile,440.17,22,Elderly,0
57,Female,Salaried,Savings,14571.7,Payment,Card,Web,1956.7,19,Senior,0
51,Female,Salaried,Savings,43795.27,Payment,Card,Branch,3132.37,2,Senior,0
57,Female,Salaried,Savings,20129.9,Transfer,Cash,Mobile,1456.55,20,Senior,0
44,Female,Salaried,Savings,92490.55,Payment,Card,Web,4876.58,11,Middle_Aged,0
30,Female,Retired,Savings,22246.27,Deposit,Card,Web,476.47,15,Adult,0
62,Male,Self_Employed,Current,7046.58,Cash_Withdrawal,UPI,ATM,341.96,21,Senior,0
50,Female,Student,Savings,51431.27,Cash_Withdrawal,UPI,Mobile,2535.76,15,Middle_Aged,0
23,Male,Salaried,Savings,92192.6,Payment,UPI,Mobile,1239.3,16,Young,0
41,Female,Salaried,Current,19108.93,Payment,Wallet,Mobile,2455.67,15,Middle_Aged,0
36,Female,Salaried,Savings,46309.75,Transfer,UPI,Web,392.28,8,Middle_Aged,0
33,Male,Business,Current,29838.22,Payment,Net_Banking,Branch,704.0,21,Adult,0
57,Male,Business,Savings,19807.72,Payment,UPI,Web,6265.33,18,Senior,0
45,Female,Self_Employed,Current,52712.52,Deposit,UPI,Branch,896.94,0,Middle_Aged,0
50,Female,Business,Current,14185.44,Cash_Withdrawal,UPI,ATM,4566.51,17,Middle_Aged,0
65,Female,Salaried,Current,27611.74,Payment,UPI,ATM,2384.62,5,Senior,0
58,Female,Business,Current,33053.59,Cash_Withdrawal,Wallet,Branch,824.3,5,Senior,0
30,Male,Salaried,Current,32108.35,Transfer,Cash,Branch,4499.66,11,Adult,0
60,Female,Business,Savings,14467.71,Deposit,Net_Banking,ATM,1519.83,2,Senior,0
62,Male,Salaried,Savings,139760.31,Deposit,Net_Banking,Mobile,1111.57,10,Senior,0
42,Female,Salaried,Savings,73850.37,Transfer,Card,Web,1012.46,5,Middle_Aged,0
70,Male,Salaried,Savings,59416.67,Deposit,Cash,ATM,1700.76,13,Elderly,0
59,Male,Salaried,Current,84674.55,Payment,Cash,Mobile,354.85,17,Senior,0
53,Female,Self_Employed,Savings,28424.57,Transfer,Cash,Web,2694.63,15,Senior,0
44,Male,Salaried,Current,19989.61,Transfer,UPI,Branch,1705.16,23,Middle_Aged,0
55,Female,Salaried,Current,11257.29,Payment,Card,Web,619.45,12,Senior,0
24,Male,Salaried,Savings,15325.21,Payment,Card,Web,308.44,0,Young,0
22,Female,Business,Savings,11953.52,Payment,UPI,Mobile,853.48,5,Young,0
60,Male,Student,Savings,17632.79,Deposit,Card,Web,1408.34,13,Senior,0
62,Female,Retired,Savings,33563.03,Cash_Withdrawal,Net_Banking,ATM,1281.74,16,Senior,0
74,Female,Self_Employed,Savings,55894.42,Cash_Withdrawal,Card,Branch,1273.87,12,Elderly,0
68,Male,Business,Current,54670.68,Payment,Card,Mobile,2151.24,12,Elderly,0
48,Male,Business,Current,10538.54,Payment,UPI,Web,347.0,8,Middle_Aged,0
40,Male,Student,Savings,46690.85,Deposit,Net_Banking,Branch,1027.19,5,Middle_Aged,0
59,Male,Salaried,Savings,67176.98,Payment,Card,ATM,1477.11,5,Senior,0
27,Female,Self_Employed,Savings,21951.96,Cash_Withdrawal,Wallet,Branch,1738.37,4,Adult,0
49,Male,Student,Savings,70136.6,Cash_Withdrawal,Wallet,Mobile,2694.14,20,Middle_Aged,0
60,Female,Salaried,Savings,54211.06,Payment,Net_Banking,Mobile,894.71,13,Senior,0
70,Male,Business,Savings,9782.27,Cash_Withdrawal,UPI,ATM,1156.68,13,Elderly,0
47,Female,Salaried,Savings,155342.7,Transfer,UPI,Branch,522.41,3,Middle_Aged,0
56,Female,Retired,Savings,15176.17,Transfer,Net_Banking,Branch,1616.87,1,Senior,0
48,Female,Salaried,Current,57868.93,Payment,Net_Banking,ATM,459.23,1,Middle_Aged,0
35,Female,Self_Employed,Savings,56217.18,Transfer,Net_Banking,ATM,1946.37,16,Adult,0
53,Male,Salaried,Savings,10105.05,Transfer,Card,Branch,3572.93,9,Senior,0
19,Male,Self_Employed,Savings,31044.71,Transfer,Card,ATM,1751.6,13,Young,0
31,Female,Salaried,Savings,55666.46,Cash_Withdrawal,UPI,Web,3957.22,18,Adult,0
30,Male,Salaried,Savings,10019.71,Payment,Net_Banking,Web,696.81,16,Adult,0
46,Male,Self_Employed,Savings,29134.93,Cash_Withdrawal,Cash,Branch,330.73,21,Middle_Aged,0
29,Female,Salaried,Savings,59524.21,Cash_Withdrawal,UPI,Mobile,932.83,10,Adult,0
56,Male,Salaried,Savings,62679.67,Transfer,UPI,Mobile,593.45,6,Senior,0
19,Male,Salaried,Savings,19581.52,Payment,Card,Branch,669.52,8,Young,0
49,Male,Business,Savings,92549.17,Cash_Withdrawal,Cash,Mobile,118.89,13,Middle_Aged,0
30,Female,Salaried,Savings,76451.94,Cash_Withdrawal,UPI,Mobile,1307.18,22,Adult,0
63,Male,Retired,Savings,32629.84,Cash_Withdrawal,UPI,ATM,1120.47,3,Senior,0
44,Female,Salaried,Current,15880.37,Deposit,UPI,Branch,2548.02,13,Middle_Aged,0
66,Male,Salaried,Current,10586.33,Transfer,UPI,Web,1906.64,19,Elderly,0
58,Male,Self_Employed,Savings,36389.54,Cash_Withdrawal,Net_Banking,ATM,920.26,23,Senior,0
34,Male,Business,Savings,86821.54,Payment,Cash,Web,2732.17,19,Adult,0
57,Female,Self_Employed,Savings,23915.4,Payment,Cash,Mobile,2661.5,16,Senior,0
48,Female,Retired,Current,13530.94,Payment,Net_Banking,Branch,673.85,18,Middle_Aged,0
51,Male,Salaried,Savings,52048.91,Transfer,Card,Mobile,1334.22,16,Senior,0
41,Female,Student,Savings,30933.96,Deposit,Net_Banking,Web,4966.63,13,Middle_Aged,0
62,Male,Student,Savings,40648.78,Deposit,Wallet,Web,1520.1,12,Senior,0
52,Female,Business,Savings,17672.71,Transfer,Cash,ATM,481.94,13,Senior,0
65,Female,Self_Employed,Savings,20012.63,Cash_Withdrawal,Card,Branch,356.92,15,Senior,0
23,Male,Salaried,Savings,17606.15,Payment,Cash,ATM,251.81,20,Young,0
36,Male,Salaried,Savings,40108.17,Deposit,Net_Banking,Web,141.49,14,Middle_Aged,0
47,Male,Student,Current,20506.22,Deposit,UPI,Web,675.82,18,Middle_Aged,0
24,Male,Self_Employed,Savings,43214.85,Deposit,UPI,Web,920.98,21,Young,0
27,Female,Salaried,Savings,16365.04,Cash_Withdrawal,Net_Banking,ATM,413.09,10,Adult,0
58,Female,Salaried,Savings,40054.7,Payment,Net_Banking,Branch,553.23,11,Senior,0
49,Female,Salaried,Savings,47241.35,Cash_Withdrawal,Card,Mobile,422.39,10,Middle_Aged,0
51,Male,Self_Employed,Savings,35074.67,Payment,Card,Web,225.9,22,Senior,0
45,Male,Business,Current,56029.56,Transfer,UPI,Web,925.31,4,Middle_Aged,1
32,Female,Business,Savings,18303.27,Payment,Card,Branch,2140.28,7,Adult,0
47,Male,Salaried,Current,46822.25,Transfer,Net_Banking,Web,658.54,5,Middle_Aged,0
54,Female,Salaried,Savings,32424.72,Payment,UPI,Mobile,3415.58,15,Senior,0
46,Female,Business,Savings,14075.81,Cash_Withdrawal,Card,Web,1278.1,11,Middle_Aged,0
39,Female,Retired,Current,5851.04,Transfer,Net_Banking,ATM,2678.49,5,Middle_Aged,0
21,Female,Salaried,Savings,6942.88,Cash_Withdrawal,UPI,ATM,1131.95,12,Young,0
37,Female,Student,Savings,4597.7,Transfer,Net_Banking,Branch,2145.62,6,Middle_Aged,0
49,Male,Student,Savings,37831.73,Transfer,Card,Mobile,267.49,7,Middle_Aged,0
53,Male,Salaried,Savings,20747.58,Transfer,Net_Banking,ATM,2546.46,11,Senior,0
67,Male,Self_Employed,Savings,28847.25,Deposit,Wallet,Mobile,1103.79,1,Elderly,0
21,Female,Student,Savings,23287.66,Cash_Withdrawal,Card,ATM,3287.64,22,Young,0
44,Female,Salaried,Savings,42844.65,Transfer,Net_Banking,ATM,852.14,8,Middle_Aged,0
34,Female,Salaried,Savings,43858.77,Transfer,Wallet,ATM,6258.51,12,Adult,0
29,Female,Student,Savings,27842.55,Cash_Withdrawal,Wallet,Web,1870.03,16,Adult,0
39,Male,Salaried,Current,29223.73,Payment,Card,Web,443.52,12,Middle_Aged,0
34,Male,Salaried,Current,30172.67,Payment,Card,Web,3388.44,15,Adult,0
27,Female,Salaried,Savings,81914.1,Payment,UPI,Mobile,380.75,0,Adult,1
71,Female,Business,Current,5411.71,Payment,UPI,Web,360.04,6,Elderly,0
18,Female,Salaried,Savings,15734.06,Cash_Withdrawal,Card,Mobile,3978.92,12,Young,0
39,Male,Salaried,Current,53755.92,Payment,UPI,Mobile,1533.72,13,Middle_Aged,0
43,Male,Retired,Savings,65272.23,Transfer,Cash,Branch,1178.96,20,Middle_Aged,0
73,Male,Business,Savings,37864.15,Cash_Withdrawal,Card,Mobile,662.52,16,Elderly,0
35,Female,Self_Employed,Current,23218.35,Payment,Net_Banking,Web,2519.21,15,Adult,0
67,Female,Student,Savings,119282.24,Deposit,Net_Banking,Branch,835.69,14,Elderly,0
31,Male,Student,Savings,31015.72,Transfer,UPI,Mobile,1341.63,16,Adult,0
64,Female,Student,Current,27574.01,Cash_Withdrawal,Card,Mobile,355.23,1,Senior,0
46,Male,Salaried,Current,78075.24,Transfer,Net_Banking,Mobile,1035.18,11,Middle_Aged,0
29,Female,Salaried,Current,39357.46,Transfer,UPI,Mobile,1306.69,2,Adult,1
53,Male,Retired,Savings,57060.32,Transfer,UPI,Web,1871.16,8,Senior,0
52,Female,Salaried,Savings,62666.22,Cash_Withdrawal,Net_Banking,Web,1537.3,5,Senior,0
69,Male,Salaried,Savings,19970.72,Transfer,UPI,Mobile,785.61,5,Elderly,0
29,Male,Salaried,Savings,110656.43,Transfer,Net_Banking,ATM,1457.86,6,Adult,0
24,Male,Student,Savings,3752.97,Deposit,Net_Banking,Branch,2924.01,7,Young,0
46,Male,Business,Savings,5520.78,Payment,Card,Mobile,248.61,2,Middle_Aged,0
28,Male,Salaried,Savings,15612.52,Transfer,Net_Banking,ATM,929.39,23,Adult,0
50,Male,Self_Employed,Savings,19174.02,Payment,Card,Mobile,1351.16,14,Middle_Aged,0
23,Female,Retired,Current,35957.74,Cash_Withdrawal,Net_Banking,Web,436.04,21,Young,0
64,Female,Salaried,Current,15497.66,Deposit,Net_Banking,ATM,2778.64,5,Senior,0
32,Female,Salaried,Current,26647.89,Cash_Withdrawal,UPI,ATM,1997.2,10,Adult,0
49,Male,Self_Employed,Current,22831.26,Transfer,Card,Web,2975.36,2,Middle_Aged,1
68,Male,Self_Employed,Savings,133729.19,Cash_Withdrawal,Cash,Web,9506.15,15,Elderly,0
28,Female,Salaried,Current,14129.49,Transfer,UPI,Mobile,1525.59,5,Adult,0
40,Male,Retired,Savings,6999.29,Deposit,Wallet,ATM,826.19,10,Middle_Aged,0
43,Male,Student,Current,65854.31,Deposit,Card,Mobile,2803.36,7,Middle_Aged,0
51,Male,Retired,Current,15196.72,Transfer,Card,Mobile,609.13,22,Senior,0
63,Male,Student,Current,25000.96,Payment,UPI,Mobile,1744.32,9,Senior,0
51,Male,Salaried,Savings,16043.51,Cash_Withdrawal,Cash,Mobile,3092.79,9,Senior,0
46,Female,Self_Employed,Savings,48520.46,Payment,Net_Banking,ATM,2520.45,22,Middle_Aged,0
21,Female,Salaried,Savings,8960.49,Payment,Card,Mobile,4479.85,2,Young,0
34,Female,Salaried,Savings,2865.93,Transfer,Net_Banking,Branch,834.46,13,Adult,0
52,Female,Salaried,Savings,75854.55,Payment,Cash,Mobile,2228.44,18,Senior,0
30,Female,Retired,Savings,32793.21,Payment,UPI,Mobile,1203.28,20,Adult,0
58,Male,Self_Employed,Savings,63456.86,Deposit,Card,Mobile,1412.67,20,Senior,0
56,Male,Business,Savings,73848.4,Transfer,UPI,Mobile,1412.74,8,Senior,0
32,Male,Business,Savings,12923.82,Transfer,UPI,Web,1879.78,12,Adult,0
72,Male,Self_Employed,Savings,28241.05,Transfer,UPI,Mobile,1060.59,8,Elderly,0
46,Female,Salaried,Savings,40308.22,Deposit,Net_Banking,Web,264.95,20,Middle_Aged,0
46,Female,Salaried,Savings,24670.57,Payment,Wallet,ATM,1279.49,11,Middle_Aged,0
28,Female,Business,Savings,20958.07,Payment,UPI,Branch,1574.61,13,Adult,0
69,Male,Salaried,Current,22676.38,Cash_Withdrawal,UPI,ATM,1051.67,4,Elderly,0
49,Female,Student,Savings,64012.54,Cash_Withdrawal,UPI,ATM,1695.08,5,Middle_Aged,0
19,Male,Student,Savings,21868.23,Payment,Net_Banking,ATM,969.25,12,Young,0
64,Female,Student,Savings,43485.53,Cash_Withdrawal,Card,ATM,836.19,12,Senior,0
31,Female,Self_Employed,Savings,35508.03,Payment,Cash,Mobile,4407.61,23,Adult,0
37,Male,Salaried,Savings,12439.77,Deposit,Card,Mobile,10478.07,5,Middle_Aged,0
39,Male,Business,Savings,34254.58,Cash_Withdrawal,Cash,Web,2642.84,13,Middle_Aged,0
28,Female,Salaried,Savings,7856.24,Cash_Withdrawal,UPI,ATM,617.35,10,Adult,0
44,Female,Salaried,Savings,37091.63,Deposit,UPI,Mobile,1373.34,12,Middle_Aged,0
20,Male,Salaried,Savings,54879.42,Cash_Withdrawal,UPI,Mobile,1274.17,11,Young,0
34,Female,Self_Employed,Savings,65981.6,Transfer,Card,Web,2144.63,15,Adult,0
61,Female,Business,Savings,12554.67,Transfer,Net_Banking,ATM,1323.66,5,Senior,0
73,Male,Retired,Savings,17519.62,Deposit,UPI,ATM,2028.49,8,Elderly,0
45,Female,Business,Savings,33767.44,Payment,UPI,Mobile,6557.64,16,Middle_Aged,0
46,Male,Business,Savings,18384.44,Transfer,Net_Banking,Web,173.58,19,Middle_Aged,0
38,Female,Business,Savings,5749.67,Transfer,UPI,Web,660.98,15,Middle_Aged,0
64,Male,Retired,Current,17442.11,Transfer,UPI,ATM,2862.4,11,Senior,0
33,Female,Self_Employed,Savings,33663.23,Transfer,Net_Banking,ATM,1049.21,17,Adult,0
54,Male,Student,Savings,63197.67,Payment,Cash,Mobile,1983.8,8,Senior,0
37,Female,Salaried,Current,103918.98,Payment,Card,Mobile,907.05,2,Middle_Aged,0
23,Male,Business,Savings,29731.38,Deposit,Net_Banking,Mobile,5219.56,9,Young,0
36,Female,Business,Savings,42327.64,Payment,Cash,Mobile,3502.65,10,Middle_Aged,0
74,Female,Salaried,Current,58024.88,Deposit,UPI,Mobile,1478.37,1,Elderly,1
22,Female,Self_Employed,Current,5216.35,Cash_Withdrawal,Cash,Mobile,5850.11,7,Young,0
20,Female,Retired,Savings,11903.97,Transfer,Cash,Mobile,1494.68,19,Young,0
18,Female,Salaried,Current,29203.67,Payment,Wallet,ATM,1171.73,10,Young,0
55,Female,Self_Employed,Current,93410.21,Deposit,Wallet,Mobile,4770.3,17,Senior,0
32,Female,Student,Savings,44525.11,Payment,Card,Mobile,270.64,19,Adult,0
51,Female,Student,Current,35022.98,Transfer,Card,Branch,1297.05,6,Senior,0
52,Female,Salaried,Savings,22415.55,Deposit,UPI,Web,1561.12,13,Senior,0
66,Male,Student,Savings,37851.86,Payment,UPI,ATM,877.77,6,Elderly,0
42,Male,Self_Employed,Current,16694.72,Transfer,Card,ATM,520.34,0,Middle_Aged,0
41,Female,Student,Current,14416.61,Payment,Cash,Mobile,1020.55,11,Middle_Aged,0
29,Male,Salaried,Savings,15454.42,Payment,Card,Mobile,242.18,0,Adult,0
35,Female,Student,Savings,78620.3,Payment,Card,Branch,5184.42,2,Adult,0
32,Female,Salaried,Savings,13736.32,Cash_Withdrawal,Net_Banking,Mobile,5450.23,1,Adult,0
61,Male,Student,Savings,19554.84,Deposit,Net_Banking,Branch,1180.05,2,Senior,0
33,Female,Business,Savings,39214.78,Payment,Cash,Mobile,803.54,3,Adult,0
44,Female,Salaried,Current,13304.43,Transfer,UPI,Branch,250.37,13,Middle_Aged,0
25,Male,Self_Employed,Current,32238.97,Transfer,Net_Banking,Web,570.33,22,Young,0
63,Male,Self_Employed,Savings,32229.69,Cash_Withdrawal,Net_Banking,Web,4831.42,17,Senior,0
42,Female,Student,Savings,16324.73,Deposit,UPI,Mobile,1105.57,22,Middle_Aged,0
34,Male,Self_Employed,Savings,21872.29,Transfer,Card,Web,656.04,4,Adult,1
46,Male,Student,Savings,12646.54,Deposit,Wallet,Mobile,1148.84,14,Middle_Aged,0
70,Female,Salaried,Savings,81325.33,Cash_Withdrawal,Card,Branch,639.45,15,Elderly,0
25,Male,Student,Savings,33059.86,Cash_Withdrawal,Card,Web,226.66,7,Young,0
32,Male,Salaried,Savings,11627.0,Cash_Withdrawal,UPI,Mobile,807.19,23,Adult,0
44,Female,Salaried,Savings,29763.99,Payment,Card,Branch,385.65,20,Middle_Aged,0
63,Male,Self_Employed,Savings,30861.83,Payment,Card,Branch,1682.45,7,Senior,0
67,Male,Salaried,Savings,4471.18,Cash_Withdrawal,UPI,Web,2774.63,6,Elderly,0
69,Female,Business,Savings,78617.94,Cash_Withdrawal,Card,Mobile,538.04,5,Elderly,0
24,Female,Salaried,Savings,12189.3,Transfer,UPI,Branch,1332.3,6,Young,0
20,Female,Self_Employed,Savings,143224.95,Deposit,Cash,Web,1079.65,22,Young,0
46,Male,Salaried,Savings,50829.52,Payment,Wallet,Web,524.8,18,Middle_Aged,0
61,Female,Salaried,Savings,10922.02,Payment,Card,Branch,112.44,21,Senior,0
70,Female,Salaried,Current,20922.9,Payment,Cash,ATM,393.61,21,Elderly,0
41,Male,Salaried,Savings,56280.0,Transfer,Card,ATM,504.67,0,Middle_Aged,0
20,Female,Salaried,Savings,22243.34,Deposit,UPI,Mobile,1265.6,12,Young,0
37,Female,Self_Employed,Savings,69050.26,Transfer,Wallet,ATM,1398.55,6,Middle_Aged,0
63,Female,Student,Savings,19913.34,Cash_Withdrawal,UPI,Web,3795.38,0,Senior,0
32,Female,Business,Savings,25262.28,Cash_Withdrawal,UPI,Mobile,390.18,9,Adult,0
42,Male,Business,Current,57533.35,Cash_Withdrawal,Card,ATM,483.07,12,Middle_Aged,0
47,Female,Self_Employed,Current,43595.66,Transfer,Cash,Mobile,575.47,3,Middle_Aged,0
31,Female,Salaried,Current,12833.55,Deposit,Card,Mobile,906.43,6,Adult,0
24,Male,Salaried,Savings,38072.26,Cash_Withdrawal,UPI,ATM,1365.89,5,Young,0
34,Female,Self_Employed,Savings,30759.63,Transfer,Net_Banking,ATM,1686.1,5,Adult,0
61,Male,Business,Savings,12972.84,Payment,Card,Mobile,166.95,20,Senior,0
37,Male,Salaried,Savings,8845.1,Cash_Withdrawal,UPI,Web,3622.78,10,Middle_Aged,0
53,Male,Salaried,Savings,5738.16,Transfer,Card,Branch,1753.82,22,Senior,0
26,Female,Salaried,Savings,21257.41,Cash_Withdrawal,UPI,ATM,2651.06,8,Adult,0
55,Male,Business,Current,25765.58,Payment,Card,Mobile,100.6,21,Senior,0
65,Male,Business,Savings,40282.1,Deposit,Cash,Mobile,2519.71,6,Senior,0
74,Male,Salaried,Savings,51864.14,Payment,Net_Banking,Mobile,405.42,8,Elderly,0
39,Female,Business,Current,19320.32,Deposit,UPI,Branch,698.74,22,Middle_Aged,0
71,Female,Salaried,Current,25173.39,Payment,UPI,Mobile,4600.89,5,Elderly,0
70,Female,Salaried,Savings,14662.11,Cash_Withdrawal,UPI,Mobile,2116.66,18,Elderly,0
70,Female,Business,Current,28847.85,Deposit,UPI,Mobile,557.42,13,Elderly,0
19,Female,Self_Employed,Current,58384.57,Cash_Withdrawal,UPI,Branch,2431.32,0,Young,0
41,Female,Salaried,Savings,29170.53,Deposit,UPI,Mobile,1573.1,15,Middle_Aged,0
25,Female,Self_Employed,Savings,68231.41,Payment,UPI,Mobile,729.71,8,Young,0
28,Male,Salaried,Savings,57608.5,Transfer,Card,Mobile,1764.79,22,Adult,0
30,Male,Salaried,Savings,86349.5,Transfer,Card,Mobile,751.32,14,Adult,0
34,Male,Salaried,Savings,29833.46,Payment,UPI,Web,1614.73,18,Adult,0
25,Male,Student,Current,17571.89,Transfer,Card,ATM,1594.27,9,Young,0
38,Female,Salaried,Current,44222.4,Payment,UPI,Web,1814.26,15,Middle_Aged,0
35,Male,Student,Current,19963.83,Cash_Withdrawal,Cash,Mobile,7512.59,2,Adult,0
47,Male,Self_Employed,Current,43126.0,Payment,Card,ATM,2822.16,18,Middle_Aged,0
35,Male,Salaried,Current,15831.51,Cash_Withdrawal,UPI,ATM,2980.9,12,Adult,0
63,Male,Business,Savings,13867.11,Transfer,UPI,Web,647.49,13,Senior,0
64,Female,Student,Savings,71193.5,Transfer,UPI,Mobile,240.47,6,Senior,0
48,Female,Retired,Savings,11967.39,Transfer,Net_Banking,Mobile,908.97,1,Middle_Aged,0
55,Female,Business,Savings,60949.33,Transfer,Wallet,ATM,674.26,13,Senior,0
49,Male,Student,Savings,42994.38,Transfer,UPI,Web,1997.42,22,Middle_Aged,0
28,Female,Self_Employed,Savings,29011.22,Payment,Cash,Branch,899.95,22,Adult,0
62,Male,Salaried,Current,5918.77,Payment,UPI,Web,4130.79,16,Senior,0
42,Female,Self_Employed,Savings,88302.82,Payment,UPI,Mobile,192.64,12,Middle_Aged,0
50,Female,Salaried,Current,12735.24,Payment,UPI,Mobile,829.36,1,Middle_Aged,1
55,Female,Business,Savings,57671.76,Payment,Net_Banking,Mobile,1592.07,4,Senior,0
58,Female,Self_Employed,Savings,15479.12,Payment,Card,ATM,413.41,3,Senior,0
25,Female,Salaried,Savings,14516.91,Payment,Wallet,Web,2710.96,2,Young,0
28,Male,Student,Current,45930.88,Transfer,Card,Web,2623.78,13,Adult,0
39,Female,Self_Employed,Savings,41389.07,Payment,UPI,Web,712.49,10,Middle_Aged,0
68,Male,Salaried,Savings,10763.56,Payment,Net_Banking,Mobile,15504.57,7,Elderly,0
41,Male,Salaried,Savings,84915.11,Payment,Net_Banking,Branch,358.59,22,Middle_Aged,0
58,Male,Student,Savings,22814.77,Transfer,Net_Banking,Branch,285.32,8,Senior,0
34,Male,Salaried,Savings,28428.37,Cash_Withdrawal,Cash,Mobile,682.5,15,Adult,0
29,Male,Retired,Savings,21212.33,Payment,UPI,Mobile,1326.49,2,Adult,1
74,Female,Salaried,Savings,11134.34,Payment,UPI,Mobile,218.49,9,Elderly,0
63,Female,Salaried,Savings,48444.77,Deposit,UPI,ATM,2037.04,0,Senior,0
49,Female,Business,Savings,33915.95,Cash_Withdrawal,Card,Branch,12839.65,8,Middle_Aged,0
32,Female,Self_Employed,Savings,14128.26,Deposit,Wallet,Mobile,272.32,15,Adult,0
33,Male,Salaried,Savings,57257.08,Transfer,Cash,Mobile,1334.64,8,Adult,0
71,Female,Salaried,Savings,28109.69,Deposit,Net_Banking,Mobile,2858.21,11,Elderly,0
39,Female,Retired,Savings,28598.27,Transfer,UPI,Mobile,2358.27,0,Middle_Aged,1
45,Male,Business,Savings,111437.03,Payment,Cash,ATM,9493.91,15,Middle_Aged,0
37,Male,Student,Savings,7432.37,Transfer,Net_Banking,Branch,685.83,7,Middle_Aged,0
50,Female,Student,Savings,7354.27,Deposit,Card,ATM,7990.31,13,Middle_Aged,0
27,Female,Salaried,Savings,8806.06,Payment,Card,Web,1032.5,13,Adult,0
57,Male,Salaried,Current,35986.77,Transfer,Cash,Web,658.38,9,Senior,0
49,Female,Salaried,Savings,20186.42,Cash_Withdrawal,Card,ATM,7180.58,0,Middle_Aged,0
67,Female,Self_Employed,Savings,21511.93,Transfer,Wallet,Branch,759.21,5,Elderly,0
50,Female,Student,Savings,12658.28,Transfer,Card,Mobile,3200.8,8,Middle_Aged,0
19,Female,Business,Current,101946.25,Payment,UPI,Web,670.03,18,Young,0
50,Male,Salaried,Savings,133360.91,Payment,Card,Web,306.72,21,Middle_Aged,0
50,Male,Self_Employed,Savings,55222.38,Deposit,UPI,Mobile,307.58,15,Middle_Aged,0
58,Male,Business,Current,8055.99,Cash_Withdrawal,Card,ATM,2220.77,18,Senior,0
30,Female,Student,Current,18223.78,Cash_Withdrawal,UPI,Web,378.45,10,Adult,0
47,Female,Salaried,Savings,52154.66,Payment,Net_Banking,Mobile,888.84,20,Middle_Aged,0
50,Female,Salaried,Savings,25934.68,Payment,Net_Banking,ATM,572.75,10,Middle_Aged,0
30,Female,Self_Employed,Current,55369.07,Transfer,UPI,Web,455.41,13,Adult,0
69,Female,Self_Employed,Savings,73002.74,Transfer,UPI,Web,514.47,6,Elderly,0
43,Male,Salaried,Savings,123717.57,Payment,Card,Mobile,1349.2,11,Middle_Aged,0
39,Female,Salaried,Savings,15932.37,Payment,Net_Banking,ATM,55.82,19,Middle_Aged,0
56,Female,Salaried,Current,28710.78,Deposit,UPI,Mobile,2550.59,19,Senior,0
19,Male,Business,Savings,18908.93,Payment,UPI,ATM,300.38,22,Young,0
55,Female,Salaried,Savings,5428.26,Transfer,Card,Mobile,341.24,4,Senior,0
56,Male,Salaried,Current,47158.53,Cash_Withdrawal,Cash,Branch,258.78,0,Senior,0
43,Male,Salaried,Savings,42224.4,Deposit,UPI,ATM,1435.36,10,Middle_Aged,0
63,Male,Student,Savings,17370.68,Cash_Withdrawal,Cash,Mobile,4740.51,14,Senior,0
67,Male,Business,Savings,7491.73,Deposit,Wallet,Web,957.53,9,Elderly,0
32,Male,Student,Current,19785.44,Transfer,UPI,ATM,1697.45,14,Adult,0
51,Female,Business,Savings,48286.21,Deposit,Card,ATM,1879.66,12,Senior,0
59,Male,Salaried,Savings,78422.51,Transfer,UPI,Web,2301.23,14,Senior,0
72,Male,Salaried,Savings,15213.48,Transfer,UPI,Web,401.99,1,Elderly,1
61,Female,Business,Savings,65261.47,Cash_Withdrawal,UPI,Web,5396.23,21,Senior,0
66,Female,Retired,Current,44266.2,Payment,Card,Web,785.28,12,Elderly,0
57,Male,Self_Employed,Savings,37443.46,Transfer,Net_Banking,Mobile,1452.53,11,Senior,0
28,Female,Salaried,Savings,9558.23,Transfer,Card,Branch,943.9,22,Adult,0
20,Female,Salaried,Savings,9896.37,Payment,UPI,ATM,702.41,3,Young,0
23,Male,Self_Employed,Current,13840.73,Deposit,UPI,Mobile,2806.15,11,Young,0
26,Male,Salaried,Savings,20720.73,Transfer,Card,Mobile,2069.6,14,Adult,0
23,Female,Salaried,Savings,113617.96,Transfer,UPI,ATM,123.2,12,Young,0
26,Male,Self_Employed,Savings,15838.71,Payment,UPI,Mobile,1667.63,1,Adult,1
56,Male,Self_Employed,Savings,49861.33,Payment,Card,Mobile,8934.05,19,Senior,0
48,Female,Retired,Savings,18549.34,Deposit,Net_Banking,Mobile,1320.46,15,Middle_Aged,0
49,Male,Self_Employed,Savings,39268.02,Payment,UPI,Mobile,657.98,13,Middle_Aged,0
58,Male,Self_Employed,Savings,25581.25,Cash_Withdrawal,Cash,Web,747.36,20,Senior,0
67,Male,Student,Savings,30996.16,Payment,UPI,Web,625.2,1,Elderly,0
29,Male,Student,Current,36159.39,Deposit,Cash,Mobile,347.57,16,Adult,0
25,Male,Salaried,Savings,22036.03,Payment,Card,Mobile,911.71,15,Young,0
25,Female,Salaried,Current,36299.94,Deposit,Net_Banking,Mobile,907.58,3,Young,0
67,Female,Salaried,Savings,72195.48,Transfer,Card,ATM,1998.52,10,Elderly,0
45,Male,Salaried,Current,14716.25,Payment,Card,Web,650.35,12,Middle_Aged,0
37,Female,Salaried,Current,69472.94,Payment,UPI,ATM,8192.1,5,Middle_Aged,0
64,Male,Salaried,Current,21760.19,Cash_Withdrawal,UPI,ATM,429.79,16,Senior,0
24,Male,Student,Current,19994.37,Transfer,Card,ATM,1270.62,0,Young,0
28,Male,Salaried,Savings,47082.07,Deposit,Net_Banking,Web,519.27,8,Adult,0
37,Male,Salaried,Savings,20477.31,Transfer,Card,ATM,639.91,20,Middle_Aged,0
33,Male,Business,Savings,34729.18,Deposit,Cash,Web,829.27,17,Adult,0
21,Female,Salaried,Savings,32228.24,Deposit,UPI,ATM,1344.55,10,Young,0
23,Female,Salaried,Savings,5080.73,Transfer,Card,Web,2447.7,13,Young,0
39,Male,Business,Current,37574.02,Cash_Withdrawal,UPI,Branch,688.39,1,Middle_Aged,0
43,Female,Salaried,Savings,8494.03,Transfer,UPI,Mobile,245.47,19,Middle_Aged,0
20,Male,Student,Savings,9028.08,Deposit,Card,Web,4314.07,10,Young,0
58,Female,Salaried,Current,36068.35,Deposit,Net_Banking,Web,412.76,1,Senior,0
59,Male,Salaried,Savings,41327.02,Payment,Card,Web,857.06,3,Senior,0
31,Female,Self_Employed,Savings,70547.36,Cash_Withdrawal,Cash,Web,1158.8,12,Adult,0
28,Male,Salaried,Current,11254.3,Transfer,Net_Banking,Mobile,990.1,5,Adult,0
35,Male,Business,Savings,14868.15,Transfer,UPI,Mobile,267.22,6,Adult,0
71,Female,Student,Savings,39006.85,Transfer,Net_Banking,Branch,2596.84,21,Elderly,0
29,Female,Salaried,Current,71640.94,Transfer,UPI,Mobile,65.48,19,Adult,0
40,Male,Salaried,Current,31374.16,Deposit,UPI,Branch,2921.32,2,Middle_Aged,0
29,Female,Salaried,Current,13327.71,Cash_Withdrawal,UPI,Mobile,3485.51,3,Adult,1
30,Male,Salaried,Savings,89781.45,Payment,UPI,Mobile,2705.93,20,Adult,0
42,Female,Salaried,Current,21809.63,Payment,Cash,Web,808.97,19,Middle_Aged,0
62,Female,Salaried,Savings,22360.24,Cash_Withdrawal,Net_Banking,Web,1248.14,2,Senior,0
68,Male,Business,Savings,8529.81,Transfer,UPI,Mobile,561.56,0,Elderly,1
36,Female,Salaried,Savings,48015.07,Deposit,UPI,ATM,1174.58,18,Middle_Aged,0
72,Female,Self_Employed,Savings,53214.41,Deposit,UPI,Web,2057.31,20,Elderly,0
63,Male,Business,Savings,15295.82,Deposit,Cash,Branch,366.85,12,Senior,0
53,Female,Salaried,Savings,109203.2,Transfer,Card,Web,958.83,13,Senior,0
62,Male,Student,Savings,16819.55,Cash_Withdrawal,Card,ATM,680.48,21,Senior,0
25,Male,Salaried,Savings,44364.89,Payment,Cash,Mobile,3543.49,15,Young,0
46,Male,Self_Employed,Current,32174.17,Transfer,Card,Branch,427.92,3,Middle_Aged,0
72,Male,Salaried,Savings,5321.74,Deposit,Wallet,ATM,2051.15,16,Elderly,0
70,Male,Self_Employed,Savings,41569.53,Payment,UPI,Mobile,1040.27,9,Elderly,0
72,Female,Salaried,Savings,38688.58,Cash_Withdrawal,Wallet,ATM,968.49,6,Elderly,0
49,Male,Self_Employed,Savings,6547.86,Transfer,UPI,Mobile,2113.46,12,Middle_Aged,0
68,Male,Student,Savings,91150.44,Deposit,UPI,Mobile,746.96,12,Elderly,0
61,Female,Self_Employed,Savings,38814.56,Deposit,Net_Banking,Mobile,1215.94,21,Senior,0
35,Female,Salaried,Savings,72512.98,Deposit,Cash,Web,3331.25,13,Adult,0
23,Female,Salaried,Current,6816.59,Cash_Withdrawal,Net_Banking,Mobile,504.23,5,Young,0
35,Male,Salaried,Savings,19373.36,Cash_Withdrawal,UPI,Mobile,1437.95,15,Adult,0
36,Male,Salaried,Savings,69181.03,Cash_Withdrawal,Net_Banking,Mobile,2647.44,8,Middle_Aged,0
39,Male,Retired,Savings,7672.26,Payment,UPI,Branch,1749.24,19,Middle_Aged,0
54,Female,Salaried,Savings,19833.19,Cash_Withdrawal,UPI,Web,3948.87,15,Senior,0
49,Male,Student,Savings,37242.33,Cash_Withdrawal,UPI,ATM,972.78,20,Middle_Aged,0
73,Female,Business,Savings,5909.61,Payment,Net_Banking,ATM,2146.15,20,Elderly,0
58,Male,Salaried,Savings,9347.72,Transfer,Cash,Mobile,3303.42,11,Senior,0
20,Female,Salaried,Current,81280.99,Transfer,Card,Branch,202.03,15,Young,0
45,Male,Business,Savings,28221.4,Cash_Withdrawal,UPI,Mobile,730.13,4,Middle_Aged,1
27,Male,Salaried,Savings,68965.39,Transfer,UPI,Mobile,1602.1,23,Adult,0
68,Male,Self_Employed,Current,31122.19,Cash_Withdrawal,UPI,Web,2753.42,10,Elderly,0
52,Female,Salaried,Savings,191897.6,Transfer,Card,Web,1399.04,0,Senior,1
46,Female,Salaried,Current,38215.09,Payment,Cash,Mobile,4432.16,9,Middle_Aged,0
71,Male,Business,Savings,74296.8,Transfer,Cash,ATM,642.8,10,Elderly,0
32,Male,Business,Savings,22095.54,Cash_Withdrawal,Net_Banking,ATM,318.98,14,Adult,0
50,Male,Salaried,Current,31843.34,Transfer,UPI,Mobile,2427.67,2,Middle_Aged,1
24,Female,Business,Current,44958.57,Transfer,UPI,Mobile,979.46,23,Young,0
29,Male,Salaried,Current,51341.01,Transfer,Card,Branch,474.48,14,Adult,0
66,Male,Salaried,Savings,26076.95,Transfer,Cash,ATM,6053.66,10,Elderly,0
47,Male,Self_Employed,Current,26962.32,Transfer,Card,Web,2314.35,8,Middle_Aged,0
38,Male,Salaried,Current,40196.52,Transfer,Net_Banking,Mobile,2103.06,1,Middle_Aged,0
48,Female,Salaried,Savings,40175.41,Payment,Cash,Mobile,5395.26,11,Middle_Aged,0
41,Female,Self_Employed,Savings,11848.46,Payment,UPI,Branch,744.65,19,Middle_Aged,0
37,Male,Retired,Savings,32207.96,Deposit,UPI,Web,4507.28,15,Middle_Aged,0
54,Male,Salaried,Current,34773.79,Payment,Net_Banking,Branch,1666.55,23,Senior,0
21,Female,Salaried,Savings,12319.58,Cash_Withdrawal,Cash,ATM,608.11,15,Young,0
45,Female,Business,Savings,55533.49,Payment,UPI,ATM,1088.99,20,Middle_Aged,0
61,Male,Retired,Savings,37428.8,Cash_Withdrawal,UPI,ATM,1321.58,0,Senior,0
37,Female,Self_Employed,Savings,173601.8,Transfer,Card,Mobile,3336.63,15,Middle_Aged,0
41,Female,Salaried,Savings,26349.09,Payment,Cash,Mobile,284.29,5,Middle_Aged,0
67,Male,Salaried,Savings,66761.97,Deposit,UPI,Branch,190.86,13,Elderly,0
66,Female,Salaried,Current,41410.94,Payment,Card,Mobile,498.92,10,Elderly,0
68,Female,Self_Employed,Savings,125135.4,Transfer,UPI,Branch,1024.81,0,Elderly,0
49,Male,Business,Current,12382.2,Transfer,Net_Banking,Mobile,2240.45,19,Middle_Aged,0
58,Male,Business,Savings,18101.48,Transfer,UPI,Web,693.79,16,Senior,0
53,Female,Retired,Savings,12726.4,Payment,Cash,Mobile,1664.27,22,Senior,0
70,Male,Student,Savings,25277.4,Cash_Withdrawal,Card,ATM,5448.73,18,Elderly,0
51,Female,Salaried,Savings,10940.43,Payment,UPI,Branch,200.48,1,Senior,0
53,Male,Salaried,Savings,7935.75,Payment,Card,ATM,957.15,13,Senior,0
19,Female,Salaried,Current,4881.76,Payment,UPI,Web,12326.0,7,Young,0
32,Male,Student,Savings,4637.93,Payment,Cash,Mobile,538.77,22,Adult,0
51,Female,Student,Savings,45483.88,Transfer,Card,Branch,484.5,21,Senior,0
53,Female,Business,Savings,18688.23,Payment,UPI,Web,1846.53,5,Senior,0
23,Female,Self_Employed,Savings,10026.62,Payment,UPI,Mobile,645.64,8,Young,0
56,Male,Salaried,Current,15878.74,Payment,Net_Banking,Mobile,3215.65,4,Senior,0
59,Male,Salaried,Savings,17635.65,Cash_Withdrawal,UPI,ATM,13030.98,4,Senior,0
68,Female,Salaried,Savings,12435.62,Deposit,Card,Mobile,1181.73,17,Elderly,0
68,Female,Self_Employed,Savings,97191.68,Transfer,UPI,ATM,16944.53,21,Elderly,1
71,Male,Self_Employed,Savings,83571.94,Transfer,Net_Banking,Mobile,697.19,13,Elderly,0
29,Male,Business,Savings,95874.17,Deposit,Card,ATM,927.39,11,Adult,0
20,Male,Salaried,Savings,31050.09,Cash_Withdrawal,Cash,Branch,419.96,11,Young,0
62,Male,Student,Savings,33670.31,Transfer,UPI,Mobile,699.16,21,Senior,0
35,Male,Student,Savings,15961.08,Deposit,UPI,Branch,863.76,5,Adult,0
57,Male,Business,Savings,13661.58,Deposit,UPI,ATM,1659.03,3,Senior,0
38,Female,Self_Employed,Current,27374.86,Transfer,UPI,Web,315.43,14,Middle_Aged,0
32,Male,Self_Employed,Savings,45337.27,Payment,Cash,Mobile,653.58,22,Adult,0
50,Female,Salaried,Current,70025.48,Transfer,Card,Mobile,670.36,14,Middle_Aged,0
52,Male,Self_Employed,Current,17382.32,Cash_Withdrawal,Card,Branch,2679.93,16,Senior,0
43,Male,Retired,Savings,9875.51,Cash_Withdrawal,Cash,Branch,1232.31,2,Middle_Aged,0
25,Female,Salaried,Savings,48396.75,Transfer,UPI,Mobile,1232.53,9,Young,0
53,Female,Salaried,Savings,6282.26,Payment,UPI,Branch,1191.84,20,Senior,0
65,Male,Retired,Savings,26072.37,Transfer,Net_Banking,Web,191.6,21,Senior,0
47,Female,Salaried,Savings,28895.57,Deposit,Card,Branch,5471.35,7,Middle_Aged,0
40,Female,Self_Employed,Savings,19870.07,Transfer,Cash,Mobile,434.88,8,Middle_Aged,0
59,Female,Retired,Savings,7815.03,Payment,UPI,Branch,2670.65,23,Senior,0
61,Female,Business,Current,20080.63,Cash_Withdrawal,Card,Branch,875.53,2,Senior,0
31,Male,Self_Employed,Savings,100110.91,Transfer,UPI,ATM,594.99,0,Adult,0
31,Female,Business,Savings,43190.56,Deposit,Net_Banking,Mobile,3114.13,10,Adult,0
19,Male,Business,Savings,68143.54,Cash_Withdrawal,Card,Mobile,332.39,12,Young,0
72,Male,Salaried,Savings,10160.25,Cash_Withdrawal,UPI,Mobile,361.74,11,Elderly,0
54,Male,Student,Savings,33010.02,Transfer,Net_Banking,Web,1283.67,20,Senior,0
22,Male,Salaried,Current,28873.29,Cash_Withdrawal,Card,Web,1322.46,6,Young,0
55,Female,Business,Current,29324.08,Cash_Withdrawal,Net_Banking,Web,2488.66,1,Senior,0
62,Female,Student,Current,41968.59,Deposit,UPI,Mobile,2245.22,0,Senior,1
58,Male,Student,Savings,30268.35,Cash_Withdrawal,UPI,ATM,1023.15,19,Senior,0
71,Male,Salaried,Savings,10388.27,Transfer,UPI,Mobile,1217.39,2,Elderly,1
64,Male,Business,Savings,43941.01,Cash_Withdrawal,UPI,Web,948.36,3,Senior,0
31,Male,Retired,Savings,52717.75,Deposit,Net_Banking,ATM,4527.12,16,Adult,0
73,Female,Retired,Savings,77310.35,Payment,Cash,Mobile,410.73,17,Elderly,0
56,Male,Salaried,Savings,80091.28,Transfer,Cash,Mobile,1131.89,16,Senior,0
42,Female,Self_Employed,Savings,39385.24,Transfer,Net_Banking,ATM,2367.35,18,Middle_Aged,0
37,Male,Business,Savings,10783.05,Cash_Withdrawal,UPI,Mobile,3327.48,3,Middle_Aged,1
19,Male,Salaried,Savings,7914.83,Transfer,Net_Banking,ATM,562.43,16,Young,0
56,Male,Business,Current,22433.82,Cash_Withdrawal,Net_Banking,Branch,415.5,21,Senior,0
23,Male,Salaried,Savings,56138.48,Cash_Withdrawal,Card,ATM,316.89,1,Young,0
34,Female,Retired,Current,53317.94,Transfer,UPI,Branch,778.25,9,Adult,0
42,Female,Salaried,Current,33496.61,Payment,Cash,ATM,1414.0,11,Middle_Aged,0
74,Female,Salaried,Savings,26127.73,Transfer,UPI,Branch,683.91,12,Elderly,0
45,Male,Business,Savings,123375.54,Cash_Withdrawal,Net_Banking,Mobile,2206.59,10,Middle_Aged,0
19,Male,Salaried,Savings,42583.64,Payment,UPI,Web,1027.05,20,Young,0
52,Female,Salaried,Current,25088.92,Cash_Withdrawal,Card,Branch,2017.27,7,Senior,0
54,Female,Business,Savings,16052.94,Payment,Card,Mobile,1270.52,19,Senior,0
22,Male,Student,Current,12005.45,Transfer,UPI,Branch,203.31,4,Young,0
18,Male,Business,Savings,11096.1,Deposit,Card,Mobile,347.29,1,Young,0
57,Female,Salaried,Current,12006.52,Transfer,UPI,Web,3488.1,11,Senior,0
29,Male,Business,Current,33683.44,Payment,Card,Mobile,429.69,1,Adult,0
73,Male,Business,Savings,26517.08,Payment,Net_Banking,Branch,2570.72,5,Elderly,0
53,Female,Salaried,Savings,20728.57,Transfer,UPI,Web,1244.2,21,Senior,0
62,Male,Business,Savings,48493.37,Payment,Net_Banking,ATM,409.71,18,Senior,0
40,Female,Business,Savings,114386.68,Transfer,UPI,Mobile,2320.75,11,Middle_Aged,1
64,Male,Self_Employed,Savings,13923.35,Payment,Cash,Branch,680.16,12,Senior,0
48,Female,Business,Current,15686.74,Payment,Net_Banking,Web,1276.1,16,Middle_Aged,0
28,Male,Self_Employed,Savings,4565.84,Cash_Withdrawal,UPI,Branch,889.04,11,Adult,0
27,Female,Salaried,Current,26342.41,Deposit,Net_Banking,Mobile,73.39,2,Adult,0
20,Female,Salaried,Current,24292.03,Payment,Card,Mobile,2151.14,23,Young,0
71,Female,Retired,Savings,54952.93,Payment,UPI,Mobile,2361.8,7,Elderly,0
31,Female,Salaried,Current,25098.16,Cash_Withdrawal,Net_Banking,Mobile,669.1,15,Adult,0
33,Male,Salaried,Savings,16806.36,Cash_Withdrawal,UPI,Mobile,2084.66,3,Adult,1
27,Male,Salaried,Current,31386.98,Payment,UPI,Mobile,458.63,23,Adult,0
46,Female,Student,Savings,42009.65,Transfer,Card,ATM,468.08,12,Middle_Aged,0
27,Male,Salaried,Savings,7374.75,Transfer,Net_Banking,Mobile,1393.55,7,Adult,0
29,Male,Retired,Savings,60205.13,Cash_Withdrawal,Net_Banking,ATM,546.68,0,Adult,0
47,Male,Salaried,Savings,76499.71,Payment,UPI,Web,963.74,2,Middle_Aged,0
58,Male,Salaried,Savings,41687.81,Deposit,Wallet,Mobile,428.8,0,Senior,0
18,Male,Retired,Savings,12738.14,Cash_Withdrawal,Cash,Mobile,303.51,14,Young,0
22,Female,Retired,Savings,20726.72,Deposit,Net_Banking,Mobile,1349.8,17,Young,0
37,Female,Salaried,Current,69306.89,Payment,UPI,ATM,1362.46,19,Middle_Aged,0
25,Female,Salaried,Savings,12300.85,Payment,Cash,Branch,1117.9,2,Young,0
60,Female,Self_Employed,Savings,44485.34,Payment,Net_Banking,Mobile,820.06,14,Senior,0
29,Male,Business,Savings,25832.34,Deposit,Card,Branch,542.62,21,Adult,0
18,Male,Business,Current,30581.62,Payment,Wallet,Mobile,371.97,4,Young,0
74,Female,Self_Employed,Current,13785.64,Payment,UPI,Branch,357.67,20,Elderly,0
71,Male,Business,Savings,35050.02,Payment,UPI,Mobile,599.52,9,Elderly,0
37,Male,Salaried,Savings,33099.07,Payment,Net_Banking,ATM,3045.08,6,Middle_Aged,0
45,Female,Business,Savings,8042.64,Deposit,Wallet,Web,1381.61,22,Middle_Aged,0
74,Male,Salaried,Savings,26807.71,Transfer,UPI,Mobile,1572.23,7,Elderly,0
60,Female,Self_Employed,Current,43963.62,Payment,UPI,Web,312.4,2,Senior,0
54,Female,Business,Savings,19767.08,Payment,Net_Banking,Mobile,1320.43,17,Senior,0
64,Male,Student,Current,3796.43,Transfer,Net_Banking,Web,1536.2,16,Senior,0
54,Male,Salaried,Savings,24542.13,Cash_Withdrawal,Cash,Branch,5355.42,15,Senior,0
29,Female,Salaried,Current,86957.46,Transfer,Cash,Branch,1076.23,21,Adult,0
54,Female,Salaried,Savings,20423.15,Transfer,Net_Banking,Mobile,739.68,12,Senior,0
66,Male,Business,Current,84366.09,Cash_Withdrawal,UPI,Mobile,509.59,3,Elderly,1
66,Female,Salaried,Current,14046.3,Payment,Wallet,Branch,1164.15,2,Elderly,0
73,Female,Self_Employed,Current,10627.75,Deposit,Card,Branch,902.44,10,Elderly,0
61,Female,Student,Savings,26793.59,Transfer,Cash,ATM,3369.28,1,Senior,0
73,Male,Business,Savings,13931.91,Transfer,Card,Mobile,2702.67,17,Elderly,0
45,Female,Self_Employed,Savings,35027.41,Transfer,Card,ATM,405.42,3,Middle_Aged,0
64,Male,Business,Savings,19969.14,Cash_Withdrawal,Cash,Branch,1072.56,16,Senior,0
32,Female,Salaried,Savings,87477.21,Transfer,Wallet,ATM,12676.18,5,Adult,0
23,Male,Retired,Savings,18895.25,Cash_Withdrawal,Cash,Mobile,253.21,9,Young,0
61,Female,Salaried,Savings,28905.57,Cash_Withdrawal,Net_Banking,Web,909.81,10,Senior,0
37,Male,Student,Savings,43350.29,Cash_Withdrawal,UPI,Branch,2327.38,4,Middle_Aged,0
67,Male,Salaried,Savings,57817.85,Cash_Withdrawal,Net_Banking,Web,864.72,17,Elderly,0
31,Male,Student,Savings,87878.83,Deposit,UPI,Mobile,794.71,9,Adult,0
19,Female,Retired,Savings,22294.81,Transfer,UPI,Mobile,685.67,8,Young,0
26,Female,Salaried,Savings,19546.54,Payment,UPI,Branch,378.47,15,Adult,0
54,Female,Self_Employed,Savings,5818.9,Transfer,Cash,Web,926.07,9,Senior,0
37,Male,Self_Employed,Savings,137773.9,Payment,Wallet,Web,3059.55,9,Middle_Aged,0
43,Female,Salaried,Current,35910.01,Deposit,Cash,Web,307.41,3,Middle_Aged,0
46,Male,Business,Current,49091.76,Payment,UPI,Mobile,1431.81,20,Middle_Aged,0
18,Female,Student,Current,41964.66,Transfer,UPI,Web,3225.99,23,Young,0
72,Male,Salaried,Current,27990.71,Transfer,Card,Mobile,1074.22,13,Elderly,0
52,Male,Student,Savings,35606.45,Cash_Withdrawal,UPI,Mobile,719.65,7,Senior,0
23,Male,Self_Employed,Savings,17193.21,Deposit,Card,Branch,2152.39,0,Young,0
54,Female,Retired,Savings,21127.29,Transfer,Cash,ATM,445.73,15,Senior,0
70,Female,Salaried,Savings,12579.65,Transfer,Wallet,Mobile,1672.21,16,Elderly,0
22,Female,Salaried,Savings,93507.34,Payment,Card,Mobile,928.4,9,Young,0
50,Male,Self_Employed,Savings,42158.21,Deposit,UPI,ATM,1167.53,5,Middle_Aged,0
66,Male,Salaried,Savings,130736.36,Cash_Withdrawal,Net_Banking,Web,5863.68,6,Elderly,0
68,Female,Self_Employed,Savings,168907.52,Transfer,Cash,Web,3484.87,17,Elderly,0
31,Female,Business,Current,8748.83,Payment,Net_Banking,ATM,4824.85,1,Adult,0
29,Female,Salaried,Savings,59170.76,Deposit,UPI,Mobile,483.98,20,Adult,0
59,Male,Self_Employed,Savings,9078.18,Transfer,Card,Mobile,394.75,8,Senior,0
37,Male,Salaried,Savings,31005.94,Deposit,Wallet,ATM,1748.9,4,Middle_Aged,0
70,Male,Self_Employed,Savings,34606.04,Transfer,UPI,Web,1516.29,7,Elderly,0
67,Male,Self_Employed,Savings,9607.19,Payment,Cash,Mobile,151.95,23,Elderly,0
41,Male,Salaried,Current,14912.95,Payment,UPI,Web,1537.07,4,Middle_Aged,0
60,Female,Student,Savings,35892.41,Cash_Withdrawal,Card,ATM,8495.67,23,Senior,0
51,Male,Retired,Savings,30978.25,Deposit,Net_Banking,Mobile,7310.4,14,Senior,0
42,Male,Self_Employed,Savings,11912.01,Transfer,Card,ATM,544.74,7,Middle_Aged,0
67,Male,Student,Savings,15391.57,Cash_Withdrawal,Net_Banking,ATM,2232.84,4,Elderly,0
46,Male,Self_Employed,Current,8158.76,Payment,Card,Branch,450.78,4,Middle_Aged,0
74,Male,Salaried,Savings,10276.97,Transfer,Wallet,ATM,996.35,19,Elderly,0
56,Female,Salaried,Savings,19987.53,Deposit,Card,ATM,482.88,16,Senior,0
48,Male,Self_Employed,Current,59276.16,Payment,UPI,Branch,340.69,8,Middle_Aged,0
73,Male,Salaried,Current,65603.64,Deposit,Card,Web,2652.59,1,Elderly,0
64,Male,Retired,Savings,116628.55,Payment,Cash,ATM,1460.44,0,Senior,0
60,Female,Salaried,Savings,37775.32,Payment,Net_Banking,Branch,1709.77,21,Senior,0
67,Female,Business,Savings,31276.63,Payment,Card,ATM,2065.31,20,Elderly,0
40,Female,Salaried,Savings,39979.3,Cash_Withdrawal,Card,Web,1335.75,10,Middle_Aged,0
61,Male,Salaried,Savings,39673.74,Payment,Net_Banking,ATM,388.53,14,Senior,0
55,Female,Business,Current,7381.92,Payment,Net_Banking,Web,1353.42,0,Senior,0
37,Male,Salaried,Savings,121917.36,Deposit,Cash,Mobile,881.95,6,Middle_Aged,0
40,Male,Salaried,Current,5740.2,Transfer,Net_Banking,Mobile,905.6,22,Middle_Aged,0
62,Female,Salaried,Savings,67441.1,Deposit,Card,Web,426.82,18,Senior,0
69,Male,Student,Savings,28144.57,Payment,UPI,Web,243.18,23,Elderly,0
33,Male,Self_Employed,Savings,11253.14,Payment,UPI,Web,621.89,14,Adult,0
67,Male,Salaried,Current,41154.95,Payment,Wallet,Branch,1891.94,5,Elderly,0
59,Female,Business,Current,24477.0,Payment,UPI,Mobile,1023.1,19,Senior,0
72,Male,Salaried,Savings,15583.53,Transfer,Card,Mobile,6523.53,9,Elderly,0
25,Male,Salaried,Savings,8909.01,Cash_Withdrawal,Net_Banking,Web,1027.08,11,Young,0
67,Female,Student,Savings,8329.8,Cash_Withdrawal,UPI,Web,1332.63,12,Elderly,0
38,Male,Salaried,Current,16502.56,Cash_Withdrawal,Net_Banking,Mobile,1115.01,14,Middle_Aged,0
18,Male,Salaried,Current,19740.14,Transfer,Net_Banking,Mobile,378.93,18,Young,0
72,Female,Business,Savings,10214.52,Payment,Wallet,Mobile,1073.35,16,Elderly,0
25,Male,Self_Employed,Savings,27744.26,Payment,UPI,Branch,376.78,12,Young,0
46,Male,Salaried,Savings,11447.09,Deposit,UPI,Mobile,1024.04,1,Middle_Aged,1
49,Male,Student,Savings,35888.66,Payment,Net_Banking,Mobile,188.68,17,Middle_Aged,0
55,Male,Salaried,Savings,72049.13,Transfer,UPI,Mobile,1023.04,10,Senior,1
22,Male,Salaried,Savings,33911.16,Transfer,Card,Web,1271.62,4,Young,1
64,Female,Salaried,Current,24957.56,Transfer,Cash,Branch,1366.65,3,Senior,0
39,Female,Salaried,Savings,17537.25,Deposit,UPI,Web,261.25,1,Middle_Aged,0
64,Female,Salaried,Current,85551.93,Payment,Net_Banking,Branch,1773.51,15,Senior,0
51,Female,Salaried,Savings,23044.62,Payment,Cash,Mobile,2119.68,6,Senior,0
18,Male,Student,Savings,197240.49,Payment,UPI,Mobile,420.66,7,Young,0
72,Male,Student,Savings,10441.79,Deposit,UPI,Web,2937.65,7,Elderly,0
72,Male,Student,Savings,33925.62,Cash_Withdrawal,UPI,Mobile,1324.37,1,Elderly,1
43,Male,Salaried,Savings,83297.92,Transfer,UPI,Mobile,1032.55,14,Middle_Aged,0
60,Male,Salaried,Savings,15489.09,Payment,Cash,Web,1935.0,4,Senior,0
27,Female,Salaried,Savings,22272.33,Payment,UPI,Web,5549.47,18,Adult,0
47,Female,Salaried,Savings,44396.56,Transfer,Card,Branch,952.62,9,Middle_Aged,0
67,Male,Salaried,Savings,36691.93,Payment,Net_Banking,Branch,669.15,8,Elderly,0
35,Male,Salaried,Savings,42098.16,Transfer,Card,Mobile,8783.59,21,Adult,0
34,Male,Salaried,Savings,68064.21,Deposit,UPI,Branch,922.5,19,Adult,0
43,Female,Student,Savings,20385.86,Payment,Wallet,ATM,1582.33,7,Middle_Aged,0
25,Male,Salaried,Current,84933.23,Payment,UPI,Web,922.1,4,Young,0
64,Male,Business,Savings,6795.31,Cash_Withdrawal,Net_Banking,Mobile,219.85,18,Senior,0
57,Male,Salaried,Current,63700.65,Deposit,Cash,Mobile,806.32,12,Senior,0
66,Female,Salaried,Savings,67357.16,Transfer,Cash,Branch,3331.49,13,Elderly,0
29,Male,Self_Employed,Savings,14478.55,Cash_Withdrawal,Net_Banking,Mobile,487.94,7,Adult,0
44,Female,Salaried,Savings,8429.49,Payment,Card,Web,4098.17,15,Middle_Aged,0
25,Female,Salaried,Current,22342.95,Transfer,Net_Banking,ATM,2353.46,21,Young,0
42,Female,Self_Employed,Current,37162.02,Cash_Withdrawal,Net_Banking,ATM,401.71,4,Middle_Aged,0
63,Female,Self_Employed,Savings,20576.83,Cash_Withdrawal,Card,Mobile,328.85,0,Senior,0
21,Female,Salaried,Savings,40197.25,Payment,Card,Web,319.83,18,Young,0
50,Female,Salaried,Savings,126778.28,Payment,Net_Banking,Mobile,728.75,22,Middle_Aged,0
18,Male,Salaried,Savings,9029.3,Payment,Card,Mobile,368.85,18,Young,0
36,Male,Student,Savings,5634.79,Cash_Withdrawal,Net_Banking,Web,3713.81,16,Middle_Aged,0
48,Male,Business,Savings,25452.31,Payment,Cash,ATM,335.78,23,Middle_Aged,0
33,Female,Student,Savings,15613.09,Transfer,Card,Mobile,449.57,22,Adult,0
31,Male,Salaried,Current,18319.99,Transfer,UPI,Branch,5008.28,20,Adult,0
70,Female,Retired,Savings,74126.66,Payment,UPI,Mobile,842.66,9,Elderly,0
65,Female,Retired,Savings,24428.53,Cash_Withdrawal,Card,Mobile,1671.49,4,Senior,0
22,Female,Salaried,Savings,26286.31,Transfer,Card,Web,1745.01,21,Young,0
58,Male,Business,Savings,18969.01,Cash_Withdrawal,Cash,Web,256.1,6,Senior,0
43,Female,Salaried,Savings,26080.91,Transfer,Cash,Web,2447.39,15,Middle_Aged,0
45,Female,Self_Employed,Savings,33349.6,Deposit,Cash,Branch,2024.91,2,Middle_Aged,0
19,Male,Salaried,Savings,249613.89,Payment,Net_Banking,ATM,2105.92,11,Young,0
67,Male,Student,Current,33648.58,Transfer,UPI,Branch,556.31,13,Elderly,0
23,Female,Salaried,Current,68197.02,Transfer,Cash,Branch,1461.11,19,Young,0
26,Female,Salaried,Savings,31229.54,Payment,UPI,Branch,922.48,0,Adult,0
50,Male,Salaried,Savings,5312.24,Payment,Card,Mobile,1203.68,6,Middle_Aged,0
58,Male,Self_Employed,Savings,17091.6,Transfer,UPI,Branch,504.1,17,Senior,0
42,Male,Business,Savings,33628.48,Transfer,Card,Mobile,906.65,22,Middle_Aged,0
65,Female,Salaried,Savings,47989.22,Cash_Withdrawal,Card,Web,2912.89,21,Senior,0
30,Male,Salaried,Savings,31830.58,Cash_Withdrawal,UPI,ATM,159.82,3,Adult,0
26,Male,Student,Savings,56178.03,Transfer,Card,Web,760.55,15,Adult,0
70,Male,Self_Employed,Current,8366.68,Cash_Withdrawal,Wallet,Web,2077.16,10,Elderly,0
30,Female,Retired,Savings,27974.09,Transfer,UPI,ATM,369.5,17,Adult,0
48,Male,Retired,Current,77836.86,Cash_Withdrawal,Cash,Branch,1636.56,22,Middle_Aged,0
58,Male,Self_Employed,Savings,12366.57,Transfer,Card,Mobile,1752.92,15,Senior,0
28,Male,Salaried,Savings,65938.2,Transfer,UPI,Web,940.91,6,Adult,0
21,Male,Student,Savings,63267.43,Cash_Withdrawal,UPI,Mobile,1482.15,20,Young,0
51,Male,Business,Savings,10000.4,Deposit,UPI,Branch,5589.49,2,Senior,0
55,Female,Self_Employed,Savings,35252.89,Transfer,Net_Banking,Mobile,559.83,4,Senior,0
63,Female,Salaried,Savings,30547.9,Transfer,UPI,Mobile,273.74,17,Senior,0
21,Female,Student,Savings,23363.02,Transfer,UPI,Mobile,717.32,16,Young,0
55,Male,Self_Employed,Savings,7930.64,Payment,UPI,Web,405.65,0,Senior,0
36,Female,Student,Savings,21797.54,Cash_Withdrawal,Card,Web,1611.67,15,Middle_Aged,0
23,Female,Salaried,Current,23741.11,Cash_Withdrawal,Cash,Mobile,695.4,14,Young,0
51,Female,Business,Savings,6914.38,Cash_Withdrawal,Card,Mobile,2024.57,12,Senior,0
35,Male,Salaried,Savings,9469.95,Transfer,Card,Mobile,1467.31,6,Adult,0
30,Male,Student,Savings,12815.41,Payment,Card,Branch,552.69,2,Adult,0
58,Female,Self_Employed,Savings,11630.37,Cash_Withdrawal,UPI,Web,435.9,23,Senior,0
40,Female,Business,Savings,34927.03,Transfer,Card,Mobile,272.31,22,Middle_Aged,0
36,Male,Retired,Savings,55782.11,Transfer,Card,Mobile,3138.18,12,Middle_Aged,0
62,Male,Salaried,Savings,20985.05,Payment,Card,Mobile,1852.8,15,Senior,0
28,Female,Student,Savings,49663.8,Payment,Cash,Branch,727.2,22,Adult,0
18,Male,Business,Current,57641.08,Transfer,Cash,ATM,2010.74,0,Young,0
41,Female,Salaried,Savings,25128.69,Transfer,UPI,Web,363.45,0,Middle_Aged,1
71,Male,Salaried,Savings,37288.3,Payment,UPI,Mobile,457.21,15,Elderly,0
24,Female,Self_Employed,Savings,22501.2,Payment,Card,Mobile,413.74,1,Young,0
42,Female,Salaried,Savings,10957.03,Transfer,Cash,ATM,1446.07,17,Middle_Aged,0
38,Male,Salaried,Current,14803.11,Transfer,UPI,Branch,599.06,20,Middle_Aged,0
32,Female,Student,Savings,34923.62,Transfer,Net_Banking,Branch,256.19,22,Adult,0
18,Female,Salaried,Savings,24414.59,Transfer,Card,ATM,1201.5,17,Young,0
29,Female,Salaried,Savings,48520.34,Transfer,UPI,Mobile,1945.02,4,Adult,1
24,Male,Salaried,Savings,5945.62,Deposit,Cash,ATM,957.24,4,Young,1
32,Male,Business,Savings,7206.53,Payment,UPI,Web,3428.06,7,Adult,0
38,Male,Self_Employed,Savings,7922.17,Transfer,Card,Web,2447.43,8,Middle_Aged,0
36,Female,Salaried,Savings,30740.08,Payment,Card,Mobile,3356.58,23,Middle_Aged,0
46,Male,Student,Savings,8933.09,Transfer,UPI,ATM,2401.33,13,Middle_Aged,0
42,Female,Student,Savings,34755.86,Payment,Net_Banking,Web,1388.34,12,Middle_Aged,0
50,Female,Salaried,Savings,49138.98,Deposit,Net_Banking,Web,316.13,17,Middle_Aged,0
66,Male,Business,Savings,90490.47,Transfer,UPI,ATM,775.78,3,Elderly,0
49,Male,Business,Current,82844.95,Transfer,Card,Web,656.93,17,Middle_Aged,0
66,Female,Self_Employed,Savings,15423.76,Deposit,UPI,Web,451.02,21,Elderly,0
52,Female,Salaried,Savings,7074.77,Payment,Net_Banking,Mobile,617.2,19,Senior,0
61,Male,Salaried,Savings,16227.24,Cash_Withdrawal,UPI,Mobile,253.55,14,Senior,0
55,Male,Salaried,Savings,58774.81,Transfer,Card,Mobile,2654.32,6,Senior,0
43,Male,Student,Savings,19697.52,Cash_Withdrawal,UPI,Web,380.35,12,Middle_Aged,0
28,Female,Business,Current,26384.8,Payment,UPI,Web,2473.22,1,Adult,0
52,Female,Retired,Savings,17227.66,Deposit,Cash,Branch,4132.93,8,Senior,0
25,Female,Salaried,Savings,95316.88,Transfer,Cash,ATM,509.71,4,Young,0
63,Female,Self_Employed,Savings,11949.34,Cash_Withdrawal,Card,Web,629.86,0,Senior,0
31,Female,Salaried,Savings,28379.22,Transfer,Cash,ATM,1805.41,18,Adult,0
27,Male,Salaried,Savings,65289.78,Payment,Card,Mobile,708.76,19,Adult,0
19,Male,Business,Current,117387.95,Cash_Withdrawal,UPI,Web,492.85,18,Young,0
63,Female,Salaried,Savings,15431.38,Transfer,UPI,Branch,1704.38,21,Senior,0
26,Female,Student,Savings,58025.9,Cash_Withdrawal,Card,ATM,522.89,12,Adult,0
20,Male,Business,Savings,16223.04,Transfer,Cash,Branch,9299.79,5,Young,0
38,Male,Self_Employed,Savings,80961.41,Transfer,Net_Banking,Mobile,1923.14,9,Middle_Aged,0
43,Male,Salaried,Current,107320.36,Transfer,UPI,Mobile,2141.6,10,Middle_Aged,0
25,Male,Salaried,Savings,13204.65,Transfer,Card,ATM,1002.46,22,Young,0
65,Female,Self_Employed,Savings,45377.46,Transfer,UPI,Web,7065.51,15,Senior,0
19,Male,Self_Employed,Savings,65553.98,Deposit,Net_Banking,Mobile,521.84,22,Young,0
23,Female,Business,Current,21260.07,Transfer,Net_Banking,Mobile,2346.46,0,Young,0
45,Male,Salaried,Current,41696.46,Cash_Withdrawal,UPI,Mobile,287.67,18,Middle_Aged,0
70,Male,Self_Employed,Savings,43478.15,Payment,Cash,Web,10868.45,4,Elderly,0
46,Male,Salaried,Savings,134285.06,Payment,Cash,Mobile,2489.66,5,Middle_Aged,0
43,Female,Business,Savings,5559.14,Cash_Withdrawal,UPI,Mobile,428.43,5,Middle_Aged,0
42,Female,Student,Savings,25726.3,Cash_Withdrawal,Card,Branch,1855.14,4,Middle_Aged,0
29,Male,Business,Savings,9895.12,Cash_Withdrawal,Cash,Web,3174.0,5,Adult,0
22,Female,Salaried,Savings,27201.8,Payment,UPI,Mobile,448.53,12,Young,0
51,Female,Salaried,Savings,14381.73,Payment,Card,Mobile,692.07,0,Senior,0
65,Male,Salaried,Savings,21939.99,Deposit,UPI,Web,406.06,0,Senior,0
54,Male,Salaried,Current,13368.84,Transfer,Card,ATM,1770.18,13,Senior,0
32,Female,Business,Savings,30463.79,Deposit,Net_Banking,Web,1315.73,7,Adult,0
61,Female,Self_Employed,Savings,63520.33,Transfer,Card,Mobile,1131.63,8,Senior,0
53,Female,Retired,Savings,19966.52,Payment,UPI,Mobile,490.03,22,Senior,0
32,Male,Salaried,Savings,84499.24,Transfer,UPI,Mobile,891.66,9,Adult,0
60,Male,Business,Savings,62017.1,Payment,Cash,Branch,536.08,5,Senior,0
65,Female,Business,Current,136934.12,Transfer,UPI,Branch,1780.58,8,Senior,0
40,Male,Salaried,Savings,37387.27,Cash_Withdrawal,Card,Branch,382.65,17,Middle_Aged,0
23,Male,Student,Current,25608.63,Transfer,UPI,ATM,493.27,14,Young,0
63,Female,Business,Savings,7568.95,Transfer,Net_Banking,Web,2478.26,3,Senior,1
67,Female,Retired,Savings,14395.2,Payment,Net_Banking,Mobile,706.35,1,Elderly,0
61,Male,Business,Savings,22780.9,Transfer,Net_Banking,Web,6379.93,5,Senior,0
60,Male,Salaried,Savings,25044.12,Transfer,UPI,Mobile,1334.17,16,Senior,0
62,Female,Salaried,Savings,176130.05,Transfer,Cash,Web,178.89,6,Senior,0
38,Male,Salaried,Current,22797.78,Transfer,UPI,Branch,291.69,22,Middle_Aged,0
40,Male,Self_Employed,Current,6537.55,Deposit,Net_Banking,Mobile,607.72,22,Middle_Aged,0
60,Female,Business,Current,45782.46,Payment,UPI,Mobile,2304.67,19,Senior,0
72,Female,Salaried,Savings,43704.16,Deposit,Net_Banking,ATM,2082.13,14,Elderly,0
33,Male,Self_Employed,Current,18636.11,Deposit,Card,Mobile,676.11,23,Adult,0
64,Male,Salaried,Savings,147581.58,Payment,Net_Banking,Mobile,3760.74,20,Senior,0
70,Male,Retired,Savings,5899.97,Cash_Withdrawal,Cash,Web,1523.45,1,Elderly,0
32,Female,Salaried,Savings,73098.69,Cash_Withdrawal,Card,Mobile,797.01,20,Adult,0
42,Male,Salaried,Savings,21314.07,Transfer,Net_Banking,Web,3544.32,11,Middle_Aged,0
53,Male,Salaried,Savings,12577.51,Cash_Withdrawal,UPI,Mobile,489.11,9,Senior,0
28,Female,Salaried,Savings,183563.99,Payment,Wallet,Mobile,1910.5,16,Adult,0
68,Female,Student,Savings,48501.86,Transfer,Net_Banking,Mobile,2115.77,17,Elderly,0
32,Male,Business,Current,21189.25,Transfer,Wallet,ATM,2035.38,15,Adult,0
21,Female,Business,Savings,20847.49,Cash_Withdrawal,UPI,Web,938.63,9,Young,0
38,Female,Business,Savings,33534.67,Deposit,UPI,ATM,2620.05,7,Middle_Aged,0
30,Male,Student,Current,18590.93,Transfer,Cash,Web,6915.93,20,Adult,0
39,Female,Salaried,Current,76091.12,Transfer,Net_Banking,ATM,938.9,21,Middle_Aged,0
36,Female,Student,Savings,28858.17,Payment,UPI,Branch,1173.22,12,Middle_Aged,0
51,Male,Business,Current,60721.41,Deposit,UPI,Web,2765.9,15,Senior,0
31,Female,Student,Current,31772.01,Transfer,UPI,Mobile,840.76,7,Adult,0
21,Male,Self_Employed,Current,53952.97,Deposit,Net_Banking,Mobile,818.11,11,Young,0
65,Male,Business,Current,78937.19,Transfer,Net_Banking,Mobile,343.74,16,Senior,0
70,Female,Salaried,Savings,103233.0,Transfer,UPI,Web,195.56,15,Elderly,0
69,Female,Salaried,Savings,39845.2,Cash_Withdrawal,UPI,Mobile,352.55,8,Elderly,0
63,Female,Salaried,Savings,13450.38,Transfer,Card,Web,2598.61,18,Senior,0
44,Male,Salaried,Savings,23433.79,Cash_Withdrawal,UPI,ATM,392.4,16,Middle_Aged,0
46,Female,Self_Employed,Savings,26346.47,Transfer,Cash,ATM,1783.76,23,Middle_Aged,0
64,Male,Self_Employed,Savings,17007.9,Payment,Card,Mobile,4843.22,7,Senior,0
45,Female,Student,Savings,14881.54,Cash_Withdrawal,Cash,ATM,1285.18,11,Middle_Aged,0
52,Female,Business,Savings,30933.67,Payment,Net_Banking,Web,453.78,8,Senior,0
25,Female,Business,Savings,12250.89,Transfer,Card,ATM,960.74,5,Young,0
33,Male,Business,Current,10488.97,Payment,UPI,Branch,1603.31,9,Adult,0
59,Female,Student,Savings,6935.8,Cash_Withdrawal,Net_Banking,Web,1611.59,8,Senior,0
53,Female,Salaried,Savings,39508.43,Payment,UPI,Mobile,1232.82,3,Senior,1
47,Male,Salaried,Savings,35348.05,Cash_Withdrawal,Net_Banking,Mobile,2062.49,10,Middle_Aged,0
35,Male,Self_Employed,Savings,20749.13,Transfer,UPI,Mobile,2979.76,20,Adult,1
19,Female,Salaried,Current,59598.46,Payment,Net_Banking,Web,678.7,21,Young,0
66,Female,Salaried,Savings,12099.9,Deposit,UPI,Mobile,4468.19,5,Elderly,0
30,Female,Retired,Savings,36486.56,Cash_Withdrawal,UPI,ATM,1524.79,17,Adult,0
21,Male,Business,Savings,28094.54,Payment,Card,Mobile,118.47,3,Young,0
43,Male,Self_Employed,Savings,14875.28,Transfer,Wallet,Mobile,908.82,11,Middle_Aged,0
42,Male,Salaried,Savings,18141.66,Transfer,Wallet,Branch,921.92,8,Middle_Aged,0
47,Male,Salaried,Savings,17058.49,Cash_Withdrawal,UPI,Branch,3229.69,14,Middle_Aged,0
28,Female,Self_Employed,Savings,32932.1,Transfer,UPI,ATM,613.23,22,Adult,0
24,Male,Salaried,Current,43249.59,Cash_Withdrawal,Card,Web,1273.04,8,Young,0
48,Male,Salaried,Savings,19127.55,Payment,UPI,Branch,265.3,5,Middle_Aged,0
61,Male,Salaried,Savings,15219.25,Payment,Net_Banking,ATM,478.08,10,Senior,0
27,Female,Student,Savings,30024.76,Payment,Card,Web,2433.24,6,Adult,0
56,Female,Salaried,Savings,7176.73,Deposit,Net_Banking,Mobile,323.32,13,Senior,0
30,Male,Self_Employed,Savings,27652.9,Payment,Cash,Web,2881.17,15,Adult,0
48,Male,Retired,Savings,93846.94,Transfer,Card,Web,3428.78,14,Middle_Aged,0
24,Female,Retired,Current,15318.7,Payment,Net_Banking,Branch,3794.74,19,Young,0
73,Female,Salaried,Savings,23353.82,Deposit,UPI,Mobile,5142.63,8,Elderly,0
66,Female,Salaried,Current,61062.27,Payment,UPI,Web,2380.78,18,Elderly,0
59,Female,Student,Savings,49204.42,Transfer,Net_Banking,Mobile,1678.17,11,Senior,0
59,Female,Self_Employed,Current,28267.59,Cash_Withdrawal,UPI,Mobile,2037.81,10,Senior,0
73,Female,Salaried,Savings,25672.54,Transfer,UPI,Branch,1177.66,7,Elderly,0
53,Female,Business,Savings,10012.14,Cash_Withdrawal,Net_Banking,Web,754.76,2,Senior,0
37,Female,Business,Savings,39851.78,Deposit,Cash,Mobile,2368.73,18,Middle_Aged,0
21,Male,Salaried,Current,9184.75,Transfer,Card,Web,1718.26,2,Young,1
71,Male,Salaried,Current,5155.67,Transfer,Cash,ATM,2644.69,2,Elderly,0
24,Male,Retired,Savings,60263.53,Transfer,UPI,Mobile,890.16,5,Young,0
71,Male,Retired,Savings,36665.41,Transfer,Wallet,Web,972.07,10,Elderly,0
18,Male,Salaried,Savings,54382.0,Cash_Withdrawal,UPI,Mobile,1354.91,19,Young,0
61,Male,Salaried,Savings,14924.99,Payment,Cash,Mobile,966.18,13,Senior,1
73,Female,Retired,Savings,39069.26,Payment,Net_Banking,Web,18803.97,1,Elderly,1
62,Female,Student,Current,18934.59,Deposit,Card,Mobile,7588.98,11,Senior,0
59,Male,Salaried,Savings,20706.56,Cash_Withdrawal,Net_Banking,ATM,1101.35,15,Senior,0
64,Male,Student,Savings,58630.09,Transfer,Net_Banking,Mobile,962.1,2,Senior,0
30,Female,Salaried,Savings,23864.97,Payment,Cash,Branch,1713.05,20,Adult,0
72,Female,Student,Savings,15411.84,Transfer,UPI,Branch,713.77,15,Elderly,0
39,Female,Salaried,Savings,9023.48,Transfer,Card,Mobile,701.85,9,Middle_Aged,0
71,Male,Salaried,Savings,35902.12,Cash_Withdrawal,Net_Banking,ATM,1144.71,19,Elderly,0
38,Female,Salaried,Savings,62791.87,Payment,Card,Web,756.44,4,Middle_Aged,0
39,Male,Retired,Current,14378.61,Transfer,Cash,Web,1317.86,12,Middle_Aged,0
45,Male,Self_Employed,Savings,46685.23,Deposit,Card,Mobile,1587.78,11,Middle_Aged,0
26,Female,Self_Employed,Savings,12654.61,Cash_Withdrawal,UPI,Mobile,45.5,0,Adult,1
43,Female,Business,Savings,48993.45,Transfer,UPI,Branch,159.75,19,Middle_Aged,0
26,Male,Student,Current,27621.0,Transfer,Wallet,Mobile,469.79,10,Adult,0
32,Female,Salaried,Current,33331.86,Transfer,Cash,Mobile,1450.51,18,Adult,0
27,Female,Self_Employed,Savings,15399.21,Payment,UPI,Web,507.4,14,Adult,0
41,Male,Salaried,Savings,35812.09,Cash_Withdrawal,Net_Banking,ATM,11049.06,17,Middle_Aged,0
74,Female,Student,Current,16678.07,Payment,Card,ATM,2682.83,15,Elderly,0
59,Male,Business,Savings,19323.19,Transfer,Net_Banking,Branch,7771.98,6,Senior,0
25,Male,Salaried,Savings,7989.62,Transfer,UPI,Mobile,2697.75,9,Young,1
41,Female,Salaried,Current,14505.43,Payment,Net_Banking,Mobile,225.02,15,Middle_Aged,0
33,Male,Retired,Current,17669.65,Payment,Card,Mobile,341.87,16,Adult,0
66,Male,Self_Employed,Savings,34552.93,Deposit,Cash,Branch,657.6,6,Elderly,0
43,Female,Salaried,Savings,43326.71,Payment,UPI,Web,331.63,10,Middle_Aged,0
44,Female,Retired,Savings,16541.95,Transfer,UPI,ATM,3233.21,16,Middle_Aged,0
54,Female,Business,Savings,23586.84,Payment,UPI,Web,935.88,4,Senior,0
21,Male,Business,Current,103684.53,Payment,Net_Banking,Mobile,1346.26,0,Young,0
67,Male,Student,Current,29878.27,Transfer,UPI,Mobile,4344.05,2,Elderly,1
41,Female,Salaried,Current,17509.28,Transfer,Cash,Web,7530.53,15,Middle_Aged,0
36,Male,Business,Savings,7018.33,Payment,UPI,ATM,835.99,23,Middle_Aged,0
53,Female,Self_Employed,Savings,13586.91,Transfer,UPI,Branch,280.18,14,Senior,0
56,Female,Business,Savings,13170.1,Cash_Withdrawal,UPI,Web,334.2,3,Senior,0
27,Male,Salaried,Savings,130914.4,Payment,Net_Banking,Mobile,3461.32,11,Adult,0
42,Female,Student,Current,13646.44,Cash_Withdrawal,Net_Banking,Web,1430.25,0,Middle_Aged,0
35,Male,Self_Employed,Savings,28024.5,Payment,Wallet,Mobile,450.32,16,Adult,0
36,Male,Salaried,Savings,36192.46,Payment,Net_Banking,Web,2225.98,23,Middle_Aged,0
53,Female,Salaried,Savings,65200.34,Deposit,UPI,ATM,373.82,14,Senior,0
27,Male,Student,Current,27076.44,Cash_Withdrawal,Net_Banking,Mobile,186.35,23,Adult,0
50,Female,Student,Current,17885.55,Deposit,Card,Web,147.27,19,Middle_Aged,0
72,Male,Business,Current,16962.68,Transfer,Net_Banking,Web,258.28,19,Elderly,0
67,Male,Business,Savings,35778.56,Payment,UPI,Mobile,3488.81,9,Elderly,0
22,Male,Salaried,Savings,15561.08,Transfer,Net_Banking,Mobile,895.55,10,Young,0
64,Female,Salaried,Savings,11121.72,Cash_Withdrawal,UPI,Mobile,1060.19,17,Senior,0
66,Male,Self_Employed,Savings,17882.83,Transfer,UPI,Mobile,1322.09,1,Elderly,1
52,Female,Salaried,Savings,9324.61,Payment,UPI,Mobile,399.22,5,Senior,0
61,Male,Salaried,Savings,118242.55,Transfer,UPI,Web,678.8,15,Senior,0
51,Male,Retired,Savings,43357.81,Payment,Card,Mobile,747.39,23,Senior,0
50,Female,Salaried,Savings,98388.09,Deposit,Net_Banking,Branch,432.26,6,Middle_Aged,0
72,Female,Retired,Savings,39669.93,Payment,Net_Banking,Mobile,674.63,22,Elderly,0
38,Female,Salaried,Savings,91096.48,Deposit,UPI,Branch,971.02,18,Middle_Aged,0
34,Female,Salaried,Savings,36097.24,Deposit,UPI,Mobile,855.88,11,Adult,0
39,Female,Salaried,Savings,48095.56,Payment,Card,Web,1691.19,17,Middle_Aged,0
65,Male,Retired,Savings,4880.61,Transfer,Net_Banking,ATM,674.77,9,Senior,0
54,Male,Salaried,Savings,12945.92,Deposit,UPI,Web,5140.19,6,Senior,0
32,Female,Salaried,Current,27709.82,Payment,Card,Mobile,390.43,3,Adult,0
52,Male,Retired,Current,28252.87,Payment,UPI,Mobile,645.3,16,Senior,0
45,Male,Salaried,Savings,25308.49,Deposit,Card,ATM,1626.21,16,Middle_Aged,0
24,Male,Salaried,Savings,38653.64,Transfer,UPI,ATM,2033.69,3,Young,1
49,Female,Salaried,Savings,39949.14,Payment,UPI,Web,328.27,20,Middle_Aged,0
28,Male,Business,Savings,53749.66,Payment,UPI,Mobile,989.57,4,Adult,1
27,Male,Student,Current,45944.75,Deposit,UPI,Web,2439.46,0,Adult,0
26,Male,Student,Savings,70493.09,Transfer,UPI,Mobile,220.83,18,Adult,0
31,Female,Business,Savings,70953.99,Transfer,Cash,Mobile,1004.44,21,Adult,0
30,Male,Salaried,Savings,30937.72,Payment,UPI,Web,247.91,22,Adult,0
74,Male,Retired,Savings,142246.82,Cash_Withdrawal,UPI,Web,486.42,10,Elderly,0
42,Female,Self_Employed,Savings,79814.82,Payment,UPI,Mobile,1194.6,0,Middle_Aged,1
19,Female,Business,Savings,14107.18,Cash_Withdrawal,Net_Banking,Web,882.42,7,Young,0
52,Male,Self_Employed,Savings,36830.54,Payment,Cash,Web,350.51,3,Senior,0
24,Male,Business,Savings,6160.45,Payment,Cash,Branch,3719.72,21,Young,0
38,Female,Salaried,Current,7049.0,Cash_Withdrawal,Card,ATM,785.52,14,Middle_Aged,0
35,Female,Self_Employed,Current,18041.04,Deposit,UPI,Web,1900.53,16,Adult,0
20,Female,Salaried,Savings,13354.97,Transfer,UPI,Mobile,4923.44,17,Young,1
59,Female,Salaried,Savings,18130.04,Payment,Card,Web,557.57,2,Senior,0
71,Female,Self_Employed,Savings,34989.21,Deposit,Card,Mobile,2029.63,17,Elderly,0
56,Female,Salaried,Savings,71699.01,Transfer,Net_Banking,Web,1660.98,6,Senior,0
58,Female,Self_Employed,Savings,68692.93,Payment,Net_Banking,Web,273.27,16,Senior,0
66,Male,Salaried,Savings,37442.25,Payment,Card,Mobile,3667.39,17,Elderly,0
28,Female,Business,Current,11274.56,Payment,Card,Mobile,1213.11,19,Adult,0
56,Female,Student,Savings,17224.52,Transfer,UPI,Web,643.66,7,Senior,0
41,Male,Business,Savings,44790.29,Payment,UPI,Mobile,217.1,10,Middle_Aged,0
63,Female,Self_Employed,Savings,13892.53,Deposit,Net_Banking,ATM,306.65,2,Senior,0
36,Female,Business,Savings,9764.09,Cash_Withdrawal,UPI,ATM,983.86,6,Middle_Aged,0
21,Male,Salaried,Savings,39888.91,Deposit,Wallet,Web,287.76,14,Young,0
43,Female,Student,Current,25882.18,Transfer,Card,Web,2064.71,9,Middle_Aged,0
55,Male,Student,Current,22726.0,Payment,Card,Web,750.68,11,Senior,0
59,Male,Business,Savings,65371.49,Cash_Withdrawal,UPI,Mobile,230.12,11,Senior,0
49,Male,Retired,Savings,64282.74,Payment,Cash,Mobile,565.13,18,Middle_Aged,0
56,Male,Salaried,Current,111847.81,Payment,Card,Mobile,378.84,18,Senior,0
62,Female,Business,Savings,15976.44,Transfer,Card,Branch,322.42,14,Senior,0
63,Male,Self_Employed,Current,37940.97,Payment,UPI,Mobile,119.68,20,Senior,0
53,Male,Salaried,Savings,27315.42,Cash_Withdrawal,UPI,Mobile,1211.37,20,Senior,0
57,Female,Business,Savings,35265.23,Cash_Withdrawal,Card,Web,422.49,4,Senior,0
54,Male,Self_Employed,Savings,10856.24,Payment,UPI,Branch,7162.54,12,Senior,0
50,Male,Salaried,Savings,8760.61,Transfer,Cash,ATM,2958.91,8,Middle_Aged,0
53,Male,Salaried,Current,26051.41,Deposit,Cash,Mobile,5605.35,21,Senior,0
20,Male,Student,Savings,13711.5,Payment,UPI,Mobile,2242.97,22,Young,0
26,Female,Retired,Savings,56986.3,Payment,Cash,Web,611.17,9,Adult,0
25,Male,Self_Employed,Savings,8098.69,Transfer,UPI,ATM,1516.38,7,Young,0
50,Female,Self_Employed,Current,8651.08,Deposit,Cash,Web,810.17,8,Middle_Aged,0
23,Female,Student,Savings,19277.04,Transfer,UPI,Mobile,1541.68,5,Young,0
58,Male,Salaried,Current,7859.99,Payment,UPI,Web,2673.85,23,Senior,0
56,Male,Student,Savings,102826.92,Cash_Withdrawal,UPI,Mobile,1993.14,17,Senior,0
21,Male,Student,Savings,23240.83,Cash_Withdrawal,Net_Banking,ATM,1105.82,9,Young,0
30,Male,Business,Savings,16609.99,Transfer,UPI,Web,1171.25,23,Adult,0
66,Female,Retired,Savings,39119.3,Transfer,UPI,Web,1365.94,14,Elderly,0
19,Female,Self_Employed,Savings,54561.23,Deposit,Card,Web,3313.77,12,Young,0
22,Female,Business,Savings,31747.43,Deposit,UPI,Web,672.05,10,Young,0
61,Male,Student,Savings,25476.88,Cash_Withdrawal,Net_Banking,ATM,846.65,1,Senior,0
44,Female,Salaried,Savings,12249.27,Cash_Withdrawal,Card,Mobile,660.19,7,Middle_Aged,0
49,Male,Salaried,Savings,44566.04,Deposit,Net_Banking,Mobile,1258.03,17,Middle_Aged,0
38,Male,Self_Employed,Savings,83563.53,Transfer,UPI,Branch,2072.87,2,Middle_Aged,0
25,Male,Self_Employed,Savings,22566.55,Transfer,UPI,Mobile,1479.79,22,Young,0
55,Male,Salaried,Savings,13642.86,Transfer,Cash,ATM,1035.17,2,Senior,0
25,Male,Salaried,Current,31107.26,Transfer,Cash,Mobile,3205.98,20,Young,0
67,Female,Student,Savings,26960.28,Deposit,UPI,Branch,495.61,6,Elderly,0
20,Female,Salaried,Savings,10167.16,Transfer,Card,Web,244.74,17,Young,0
71,Male,Salaried,Savings,17995.0,Cash_Withdrawal,Net_Banking,Branch,1512.55,20,Elderly,0
61,Female,Student,Savings,112509.01,Cash_Withdrawal,UPI,Mobile,1053.36,20,Senior,0
20,Male,Salaried,Savings,9154.09,Deposit,Cash,Web,927.85,8,Young,0
39,Male,Self_Employed,Savings,15483.09,Payment,UPI,Mobile,293.11,17,Middle_Aged,0
23,Male,Business,Savings,12594.67,Deposit,Net_Banking,ATM,1337.56,0,Young,0
19,Female,Student,Savings,13517.77,Payment,Card,ATM,6601.64,3,Young,0
40,Male,Salaried,Current,18837.76,Transfer,UPI,Mobile,289.59,3,Middle_Aged,1
61,Male,Salaried,Current,38511.25,Transfer,Card,Web,937.2,16,Senior,0
19,Female,Salaried,Savings,76638.13,Payment,Wallet,Branch,1182.63,22,Young,0
55,Female,Salaried,Savings,31655.19,Cash_Withdrawal,Cash,ATM,703.5,1,Senior,0
34,Female,Salaried,Current,15560.56,Cash_Withdrawal,UPI,Branch,1292.59,14,Adult,0
52,Male,Business,Current,92219.98,Payment,Card,Mobile,701.32,12,Senior,0
51,Male,Self_Employed,Savings,5141.75,Transfer,Card,Mobile,1278.69,8,Senior,0
40,Female,Salaried,Savings,46109.88,Cash_Withdrawal,UPI,Mobile,849.89,6,Middle_Aged,0
47,Male,Self_Employed,Current,11832.36,Cash_Withdrawal,UPI,Mobile,640.45,11,Middle_Aged,0
69,Female,Salaried,Savings,25829.21,Payment,Card,Mobile,1015.28,11,Elderly,0
25,Female,Student,Savings,42212.85,Payment,Card,Web,1774.48,13,Young,0
39,Male,Salaried,Savings,7447.99,Transfer,UPI,Web,231.03,22,Middle_Aged,0
61,Male,Business,Current,30131.4,Cash_Withdrawal,Net_Banking,Web,2194.92,14,Senior,0
53,Female,Retired,Current,32041.32,Payment,Card,Mobile,530.73,0,Senior,0
22,Female,Business,Savings,86670.61,Deposit,UPI,Web,2035.35,8,Young,0
30,Female,Self_Employed,Savings,236125.67,Transfer,UPI,Web,561.28,15,Adult,0
46,Female,Self_Employed,Savings,7766.88,Payment,Cash,Branch,2237.98,8,Middle_Aged,0
48,Male,Business,Current,83593.66,Deposit,Cash,Mobile,1044.24,15,Middle_Aged,0
64,Female,Salaried,Savings,26100.14,Transfer,Cash,Branch,432.93,1,Senior,0
74,Female,Salaried,Current,14088.91,Payment,UPI,Web,707.13,9,Elderly,0
72,Female,Retired,Savings,36143.14,Payment,Card,Web,3617.97,17,Elderly,0
33,Male,Self_Employed,Current,9491.64,Transfer,Net_Banking,ATM,1154.97,12,Adult,0
59,Male,Student,Savings,9955.79,Deposit,Card,Mobile,693.65,1,Senior,0
47,Female,Self_Employed,Savings,6713.48,Deposit,UPI,Mobile,3430.76,12,Middle_Aged,0
74,Male,Salaried,Savings,41642.28,Deposit,Net_Banking,ATM,2579.02,23,Elderly,0
72,Male,Salaried,Savings,34947.75,Transfer,UPI,Mobile,473.32,2,Elderly,1
33,Male,Salaried,Current,14023.55,Transfer,UPI,Branch,893.83,14,Adult,0
29,Female,Business,Savings,91024.27,Cash_Withdrawal,UPI,Mobile,188.2,2,Adult,1
34,Female,Self_Employed,Savings,15829.58,Cash_Withdrawal,UPI,ATM,2622.68,22,Adult,0
33,Male,Salaried,Savings,75086.17,Deposit,Card,Mobile,1101.1,9,Adult,0
29,Female,Student,Current,29663.27,Transfer,UPI,ATM,2143.42,5,Adult,0
25,Female,Salaried,Savings,15660.63,Transfer,Net_Banking,Mobile,158.84,22,Young,0
37,Male,Business,Savings,24538.9,Transfer,Card,Mobile,828.11,21,Middle_Aged,0
20,Male,Salaried,Current,9867.54,Payment,Card,Mobile,1296.72,13,Young,0
33,Female,Salaried,Savings,31996.66,Payment,Card,Web,131.86,8,Adult,0
47,Male,Salaried,Savings,27568.8,Transfer,Cash,ATM,2114.03,17,Middle_Aged,0
62,Female,Salaried,Savings,41025.86,Cash_Withdrawal,Card,Branch,793.57,7,Senior,0
40,Female,Salaried,Savings,54356.63,Transfer,Net_Banking,Branch,189.67,5,Middle_Aged,0
45,Male,Business,Current,29510.24,Transfer,Net_Banking,ATM,655.56,14,Middle_Aged,0
68,Female,Student,Current,8258.04,Cash_Withdrawal,Cash,Web,1731.39,13,Elderly,0
57,Female,Business,Savings,56720.48,Payment,Card,Mobile,440.05,14,Senior,0
71,Male,Salaried,Savings,27220.65,Deposit,Net_Banking,Mobile,1047.67,19,Elderly,0
22,Male,Salaried,Savings,5912.06,Transfer,Card,Mobile,711.14,5,Young,0
37,Male,Salaried,Savings,34464.73,Transfer,UPI,Mobile,149.29,21,Middle_Aged,0
57,Female,Business,Savings,36610.82,Cash_Withdrawal,UPI,Branch,2046.4,11,Senior,0
73,Male,Retired,Current,20195.52,Cash_Withdrawal,Net_Banking,Mobile,2459.56,9,Elderly,0
61,Male,Self_Employed,Savings,22965.09,Transfer,UPI,ATM,3458.99,18,Senior,0
18,Male,Business,Savings,16710.42,Deposit,Net_Banking,Mobile,1106.56,7,Young,0
74,Male,Salaried,Current,37530.2,Deposit,UPI,Mobile,1780.42,4,Elderly,1
47,Female,Self_Employed,Current,30091.35,Payment,Card,Branch,218.32,9,Middle_Aged,0
38,Female,Business,Savings,13009.26,Transfer,Cash,Mobile,1394.27,10,Middle_Aged,0
37,Male,Salaried,Current,98162.2,Cash_Withdrawal,UPI,Mobile,797.95,19,Middle_Aged,0
23,Female,Self_Employed,Savings,15793.56,Deposit,Cash,Mobile,1015.41,13,Young,0
39,Male,Salaried,Savings,3086.48,Transfer,Cash,Mobile,358.76,13,Middle_Aged,0
35,Male,Salaried,Savings,18461.83,Deposit,Card,ATM,3369.99,1,Adult,0
25,Female,Salaried,Savings,61374.52,Cash_Withdrawal,Card,Mobile,210.4,16,Young,0
56,Female,Salaried,Savings,22805.9,Transfer,UPI,ATM,1439.44,14,Senior,0
49,Male,Salaried,Current,7274.83,Cash_Withdrawal,Card,Web,438.12,22,Middle_Aged,0
50,Male,Salaried,Current,11819.75,Transfer,UPI,Mobile,9123.42,2,Middle_Aged,1
70,Female,Salaried,Savings,11330.02,Transfer,UPI,Web,2198.14,2,Elderly,1
33,Male,Salaried,Savings,16979.65,Cash_Withdrawal,Net_Banking,Branch,1065.82,2,Adult,0
29,Female,Business,Savings,21821.17,Deposit,Card,Branch,392.32,2,Adult,0
55,Male,Business,Savings,39938.01,Transfer,Cash,ATM,2670.52,17,Senior,0
69,Male,Salaried,Current,29814.52,Transfer,Card,Branch,41.9,5,Elderly,0
51,Female,Student,Savings,30980.8,Deposit,UPI,Web,1610.29,13,Senior,0
31,Female,Salaried,Savings,111690.01,Deposit,Card,Web,1826.91,2,Adult,0
53,Female,Self_Employed,Savings,53565.66,Payment,Net_Banking,ATM,1722.85,0,Senior,0
50,Female,Salaried,Savings,49923.33,Cash_Withdrawal,UPI,ATM,2534.74,9,Middle_Aged,0
40,Female,Salaried,Savings,6307.35,Payment,Net_Banking,Branch,623.3,12,Middle_Aged,0
67,Female,Student,Savings,14743.47,Cash_Withdrawal,Card,Mobile,1899.44,8,Elderly,0
62,Female,Business,Savings,7497.92,Deposit,UPI,ATM,561.16,21,Senior,0
19,Male,Salaried,Savings,14541.44,Transfer,Card,Mobile,478.0,21,Young,0
58,Male,Salaried,Savings,50812.28,Cash_Withdrawal,Card,Branch,390.59,1,Senior,0
38,Male,Student,Savings,19648.12,Cash_Withdrawal,UPI,Mobile,852.37,9,Middle_Aged,0
19,Female,Salaried,Current,63446.56,Deposit,Net_Banking,Branch,3331.65,11,Young,0
44,Female,Self_Employed,Current,46840.72,Payment,Net_Banking,Mobile,6094.1,18,Middle_Aged,0
74,Female,Self_Employed,Current,28011.27,Transfer,Net_Banking,Mobile,836.8,2,Elderly,0
26,Male,Business,Savings,64656.06,Transfer,Net_Banking,Mobile,575.38,18,Adult,0
18,Female,Business,Savings,80140.19,Payment,Net_Banking,Web,4144.06,0,Young,0
28,Female,Student,Savings,38696.71,Payment,Net_Banking,Mobile,1691.6,14,Adult,0
20,Male,Business,Current,32337.2,Payment,UPI,Mobile,1128.97,22,Young,0
69,Female,Business,Savings,44653.82,Deposit,Card,Mobile,362.93,12,Elderly,0
40,Male,Salaried,Savings,8731.83,Cash_Withdrawal,UPI,Mobile,4590.3,6,Middle_Aged,0
43,Male,Self_Employed,Savings,24488.11,Deposit,Card,Web,1204.34,1,Middle_Aged,0
21,Female,Salaried,Savings,26391.77,Cash_Withdrawal,Net_Banking,Mobile,1096.81,21,Young,0
35,Female,Salaried,Savings,20030.36,Cash_Withdrawal,UPI,ATM,1884.99,19,Adult,0
72,Female,Business,Savings,14305.56,Cash_Withdrawal,Cash,ATM,1120.91,10,Elderly,0
23,Male,Business,Current,59780.58,Payment,Cash,Mobile,4791.68,22,Young,0
52,Male,Business,Savings,30823.93,Payment,UPI,Branch,3016.34,15,Senior,0
39,Male,Student,Current,33149.82,Cash_Withdrawal,UPI,Mobile,625.57,13,Middle_Aged,0
60,Female,Self_Employed,Savings,84091.78,Cash_Withdrawal,Card,ATM,1196.19,22,Senior,0
32,Female,Salaried,Current,23011.22,Cash_Withdrawal,UPI,Mobile,610.68,14,Adult,0
39,Female,Salaried,Savings,19711.88,Deposit,Card,Web,7254.4,19,Middle_Aged,0
54,Female,Retired,Savings,79940.23,Cash_Withdrawal,Card,Mobile,532.25,18,Senior,0
69,Male,Business,Savings,8163.34,Payment,Card,Mobile,973.57,6,Elderly,0
59,Male,Student,Savings,28027.82,Cash_Withdrawal,UPI,Web,1578.02,8,Senior,0
29,Male,Self_Employed,Savings,14911.47,Cash_Withdrawal,Card,Web,1818.41,3,Adult,0
64,Male,Student,Savings,34000.93,Cash_Withdrawal,UPI,ATM,2152.92,5,Senior,0
66,Female,Student,Savings,42513.29,Payment,Net_Banking,ATM,2442.96,22,Elderly,0
59,Female,Salaried,Savings,44447.88,Payment,UPI,Mobile,2192.64,9,Senior,0
55,Female,Retired,Current,61144.26,Payment,Net_Banking,Web,711.25,2,Senior,0
35,Male,Salaried,Current,21981.98,Transfer,Cash,Branch,635.01,20,Adult,0
62,Male,Business,Savings,23105.43,Cash_Withdrawal,Net_Banking,Mobile,1139.37,0,Senior,0
52,Female,Salaried,Savings,40998.13,Deposit,UPI,Web,631.63,5,Senior,0
47,Female,Business,Current,54720.92,Transfer,UPI,ATM,568.09,4,Middle_Aged,0
41,Male,Salaried,Savings,9506.75,Payment,Card,Branch,719.14,22,Middle_Aged,0
59,Female,Business,Savings,34589.21,Deposit,UPI,Web,8974.43,14,Senior,0
47,Male,Salaried,Savings,19610.19,Deposit,Net_Banking,Web,5134.94,10,Middle_Aged,0
31,Male,Business,Savings,28845.87,Transfer,Card,ATM,863.35,19,Adult,0
23,Male,Retired,Savings,20224.48,Deposit,Wallet,ATM,138.86,12,Young,0
20,Female,Business,Savings,15090.23,Transfer,Net_Banking,Web,607.72,5,Young,0
33,Female,Salaried,Savings,11910.57,Transfer,UPI,ATM,2643.93,4,Adult,0
24,Male,Self_Employed,Savings,23841.45,Cash_Withdrawal,Cash,ATM,229.17,1,Young,0
69,Female,Student,Current,35836.59,Transfer,UPI,ATM,2005.89,16,Elderly,0
31,Male,Business,Savings,16607.24,Payment,UPI,ATM,1881.29,23,Adult,0
26,Male,Self_Employed,Savings,69692.61,Deposit,UPI,Web,1115.8,11,Adult,0
32,Male,Student,Savings,192290.07,Deposit,Net_Banking,Mobile,1056.16,11,Adult,0
38,Male,Salaried,Savings,37440.19,Cash_Withdrawal,Card,Mobile,443.82,21,Middle_Aged,0
52,Female,Salaried,Savings,26030.17,Transfer,Cash,Mobile,2201.35,13,Senior,0
19,Male,Salaried,Savings,12967.35,Payment,UPI,Web,1495.05,6,Young,1
44,Male,Business,Savings,36172.21,Deposit,Card,Branch,678.15,21,Middle_Aged,0
19,Female,Salaried,Savings,87705.56,Deposit,Card,Mobile,500.19,13,Young,0
52,Male,Salaried,Savings,127871.81,Payment,UPI,Mobile,332.48,6,Senior,0
35,Male,Salaried,Savings,82201.16,Payment,UPI,Mobile,1590.05,8,Adult,0
31,Female,Salaried,Current,52820.13,Transfer,Card,Mobile,895.84,13,Adult,0
37,Female,Salaried,Savings,37352.48,Deposit,Cash,Web,907.33,20,Middle_Aged,0
35,Female,Self_Employed,Savings,11626.77,Deposit,UPI,Mobile,230.17,16,Adult,0
27,Male,Student,Savings,24840.3,Payment,Wallet,Mobile,366.8,16,Adult,0
42,Female,Self_Employed,Savings,22636.01,Transfer,UPI,Mobile,329.0,20,Middle_Aged,0
19,Female,Business,Current,24970.16,Transfer,Card,Branch,2365.51,12,Young,0
42,Male,Salaried,Savings,15130.54,Cash_Withdrawal,UPI,Branch,1302.06,17,Middle_Aged,0
71,Male,Business,Savings,49330.09,Transfer,UPI,Web,826.35,18,Elderly,0
50,Male,Salaried,Savings,21609.93,Payment,Net_Banking,Mobile,3312.84,16,Middle_Aged,0
53,Male,Salaried,Savings,20251.33,Payment,Net_Banking,Mobile,2875.91,5,Senior,0
48,Male,Student,Savings,15171.57,Cash_Withdrawal,Cash,Web,3312.42,11,Middle_Aged,0
31,Female,Salaried,Savings,32397.61,Transfer,Net_Banking,ATM,860.88,5,Adult,0
18,Female,Salaried,Savings,89091.54,Transfer,Net_Banking,Web,266.57,2,Young,1
63,Female,Student,Current,26684.37,Payment,Cash,Mobile,6042.05,14,Senior,0
33,Male,Salaried,Savings,33704.7,Payment,Net_Banking,Mobile,1852.35,2,Adult,0
71,Male,Student,Savings,126526.68,Payment,Card,Mobile,1891.14,22,Elderly,0
63,Male,Salaried,Current,70456.73,Payment,Card,Branch,2155.7,14,Senior,0
69,Female,Student,Current,43053.37,Deposit,Net_Banking,ATM,17387.36,0,Elderly,1
20,Female,Student,Savings,41629.25,Payment,UPI,Web,991.84,20,Young,0
